lattice_vector  3.99412691e+01 0.00000000e+00 0.00000000e+00
lattice_vector  2.44569737e-15 3.99412691e+01 0.00000000e+00
lattice_vector  2.44569737e-15 2.44569737e-15 3.99412691e+01
atom  3.57215000e+00 1.32258000e+00 8.06143000e-01	N
atom  2.07886000e+00 2.20996000e+00 3.35426000e+00	N
atom  1.18325000e+00 7.25760000e-01 3.33437000e+00	Si
atom  3.71476000e+00 2.10740000e+00 3.91174000e+00	Si
atom  -3.06334000e-01 1.28214000e+00 4.01805000e+00	N
atom  2.42792000e+00 2.51579000e+00 4.05327000e-02	Si
atom  1.24146000e+00 3.87225000e-01 1.55469000e+00	N
atom  4.41581000e+00 5.18293000e-01 4.12303000e+00	N
atom  7.87107000e+00 6.66650000e-01 1.31027000e+00	Si
atom  8.86964000e+00 1.32955000e+00 2.65520000e+00	N
atom  5.01742000e+00 2.00911000e+00 1.38676000e+00	Si
atom  6.17695000e+00 7.69377000e-01 1.70103000e+00	N
atom  2.49350000e+00 1.18247000e+00 7.46312000e+00	Si
atom  3.70748000e+00 5.82898000e-01 8.56998000e+00	N
atom  1.16841000e+00 2.96905000e-01 8.37564000e+00	N
atom  6.39423000e+00 7.62022000e-01 8.30464000e+00	Si
atom  7.97474000e+00 1.52931000e+00 7.85271000e+00	N
atom  9.09475000e+00 1.20198000e+00 5.60085000e+00	N
atom  5.83264000e+00 4.49262000e-01 6.70155000e+00	N
atom  5.99272000e+00 2.11301000e+00 9.39048000e+00	N
atom  7.23252000e+00 1.24662000e+00 5.88300000e+00	Si
atom  7.71266000e+00 2.63445000e+00 9.20250000e+00	Si
atom  1.82527000e+00 1.33827000e+00 1.38235000e+01	N
atom  3.40288000e+00 6.69316000e-01 1.40453000e+01	Si
atom  4.51013000e+00 1.80584000e+00 1.32308000e+01	N
atom  3.29456000e-01 5.51614000e-01 1.41730000e+01	Si
atom  -3.93496000e-01 2.54356000e+00 1.19090000e+01	N
atom  4.51070000e+00 1.48881000e+00 9.87788000e+00	Si
atom  6.23173000e+00 1.64189000e+00 1.35589000e+01	Si
atom  8.66877000e+00 1.27419000e+00 1.19708000e+01	Si
atom  7.04655000e+00 7.56398000e-01 1.23359000e+01	N
atom  9.37688000e+00 1.76882000e+00 1.35042000e+01	N
atom  8.76080000e+00 2.45666000e+00 1.06668000e+01	N
atom  2.34408000e+00 1.75941000e+00 1.79858000e+01	N
atom  2.22598000e+00 1.44281000e+00 1.62148000e+01	Si
atom  6.83845000e-01 5.73351000e-01 1.59196000e+01	N
atom  3.59785000e+00 4.02351000e-01 1.57888000e+01	N
atom  1.50313000e-01 4.15130000e-01 1.87981000e+01	N
atom  1.93874000e+00 3.17322000e-01 1.88893000e+01	Si
atom  7.79948000e+00 1.03040000e+00 1.62780000e+01	Si
atom  7.86228000e+00 1.43271000e+00 1.88756000e+01	Si
atom  9.43406000e+00 1.05490000e+00 1.82630000e+01	N
atom  5.31805000e+00 6.95051000e-01 1.64976000e+01	Si
atom  6.86368000e+00 6.10257000e-01 1.77019000e+01	N
atom  6.43768000e+00 8.36022000e-01 1.51292000e+01	N
atom  5.35542000e+00 2.58305000e+00 1.67543000e+01	N
atom  8.13705000e+00 2.70801000e+00 1.60124000e+01	N
atom  2.73646000e+00 1.60272000e+00 2.28274000e+01	N
atom  2.37884000e+00 1.58168000e+00 2.11926000e+01	Si
atom  7.44476000e-01 1.88485000e+00 2.09168000e+01	N
atom  1.57782000e+00 2.35399000e+00 2.44660000e+01	Si
atom  8.96330000e-02 2.54768000e+00 2.34770000e+01	N
atom  3.90252000e+00 2.72231000e+00 2.36334000e+01	Si
atom  8.00417000e+00 1.08241000e+00 2.05606000e+01	N
atom  5.38995000e+00 1.55488000e+00 2.05848000e+01	N
atom  6.61180000e+00 1.21318000e+00 2.30507000e+01	N
atom  8.12636000e+00 1.23752000e+00 2.41426000e+01	Si
atom  6.54391000e+00 6.00366000e-01 2.14168000e+01	Si
atom  9.32973000e+00 9.78505000e-01 2.29180000e+01	N
atom  1.97586000e+00 6.68509000e-01 2.50476000e+01	N
atom  3.73855000e+00 2.06537000e+00 2.74403000e+01	N
atom  3.07325000e+00 7.85124000e-01 2.65315000e+01	Si
atom  5.45008000e-01 9.05944000e-01 2.61318000e+01	Si
atom  1.34322000e+00 1.08945000e+00 2.93297000e+01	Si
atom  3.89954000e+00 2.30943000e+00 2.91577000e+01	Si
atom  9.36760000e-01 2.62736000e+00 2.61135000e+01	N
atom  1.37946000e+00 4.94398000e-01 2.76728000e+01	N
atom  7.60239000e+00 1.19798000e+00 2.68510000e+01	Si
atom  9.20225000e+00 1.72234000e+00 2.61488000e+01	N
atom  6.53915000e+00 2.57241000e+00 2.69335000e+01	N
atom  4.64799000e+00 1.82827000e+00 2.49152000e+01	N
atom  4.95735000e+00 2.69701000e+00 2.63773000e+01	Si
atom  5.37282000e+00 1.47399000e+00 2.97667000e+01	N
atom  7.28847000e-01 1.31947000e+00 3.29531000e+01	Si
atom  3.47443000e+00 1.12918000e+00 3.39413000e+01	Si
atom  2.13144000e+00 2.12150000e+00 3.36001000e+01	N
atom  -2.00048000e-01 9.28038000e-01 3.43876000e+01	N
atom  4.31309000e+00 6.01780000e-01 3.08925000e+01	Si
atom  -1.60459000e-01 2.56300000e+00 3.19514000e+01	N
atom  2.89951000e+00 1.14876000e+00 3.00075000e+01	N
atom  4.45913000e+00 1.13610000e+00 3.24673000e+01	N
atom  8.64700000e+00 1.61654000e+00 3.43209000e+01	Si
atom  7.83022000e+00 2.46574000e+00 3.03894000e+01	N
atom  9.17202000e+00 2.57150000e+00 3.15320000e+01	Si
atom  7.07713000e+00 1.02898000e+00 2.97543000e+01	Si
atom  -3.45523000e-01 1.58410000e+00 3.59807000e+01	Si
atom  1.05387000e+00 1.98527000e+00 3.89890000e+01	N
atom  4.40950000e+00 1.84971000e+00 3.53098000e+01	N
atom  7.44200000e-01 3.67666000e-01 3.85185000e+01	Si
atom  8.31323000e+00 1.27512000e+00 3.96335000e+01	N
atom  7.05013000e+00 3.78974000e-01 3.73553000e+01	N
atom  5.87384000e+00 1.17562000e+00 3.61256000e+01	Si
atom  5.85553000e+00 2.52398000e+00 3.73888000e+01	N
atom  7.19247000e+00 2.00094000e+00 3.52076000e+01	N
atom  7.34016000e+00 1.84480000e+00 3.82530000e+01	Si
atom  1.24772000e+00 3.49266000e+00 2.60473000e+00	Si
atom  1.96514000e+00 3.89442000e+00 1.05507000e+00	N
atom  1.19702000e+00 4.82687000e+00 3.64568000e+00	N
atom  -3.98801000e-01 3.11804000e+00 2.04284000e+00	N
atom  5.80557000e+00 2.92818000e+00 2.01327000e-01	N
atom  4.84777000e+00 2.95358000e+00 2.82562000e+00	N
atom  5.56591000e+00 4.52767000e+00 3.03966000e+00	Si
atom  7.30001000e+00 4.37814000e+00 3.34479000e+00	N
atom  6.19938000e+00 4.66973000e+00 3.82458000e-01	Si
atom  8.48611000e+00 4.79739000e+00 2.09966000e+00	Si
atom  2.70636000e+00 3.74425000e+00 9.43740000e+00	Si
atom  3.37404000e+00 3.86756000e+00 6.81292000e+00	Si
atom  3.79995000e+00 2.77373000e+00 5.52227000e+00	N
atom  2.61355000e+00 2.88232000e+00 7.99345000e+00	N
atom  -3.79040000e-01 3.79383000e+00 9.19943000e+00	Si
atom  5.33268000e+00 3.56915000e+00 5.42254000e+00	Si
atom  7.84431000e+00 4.26265000e+00 5.03627000e+00	Si
atom  7.79064000e+00 4.20285000e+00 8.45449000e+00	N
atom  6.86648000e+00 2.84602000e+00 5.47947000e+00	N
atom  5.09821000e+00 4.07621000e+00 7.14356000e+00	N
atom  9.48920000e+00 4.11027000e+00 5.59028000e+00	N
atom  9.26407000e+00 5.04752000e+00 8.67416000e+00	Si
atom  2.12674000e+00 3.77745000e+00 1.26710000e+01	N
atom  6.48761000e-01 4.01884000e+00 1.17846000e+01	Si
atom  3.71725000e+00 2.99225000e+00 1.22703000e+01	Si
atom  1.08590000e+00 4.03751000e+00 1.00481000e+01	N
atom  1.65881000e+00 3.50518000e+00 1.43826000e+01	Si
atom  -8.63154000e-02 3.36665000e+00 1.44955000e+01	N
atom  3.55090000e+00 2.77152000e+00 1.05463000e+01	N
atom  4.53252000e+00 4.48030000e+00 1.27670000e+01	N
atom  7.02207000e+00 3.16201000e+00 1.35002000e+01	N
atom  8.52144000e+00 3.08001000e+00 1.44097000e+01	Si
atom  6.23220000e+00 4.68215000e+00 1.29700000e+01	Si
atom  9.46775000e+00 4.49287000e+00 1.43900000e+01	N
atom  9.01137000e-01 4.11093000e+00 1.92156000e+01	N
atom  3.47497000e+00 4.37810000e+00 1.80277000e+01	N
atom  2.75270000e+00 2.93850000e+00 1.56295000e+01	N
atom  2.32562000e+00 3.25959000e+00 1.88447000e+01	Si
atom  4.05223000e+00 3.68514000e+00 1.64681000e+01	Si
atom  7.46796000e+00 3.13523000e+00 1.87264000e+01	N
atom  6.88757000e+00 3.46333000e+00 1.70871000e+01	Si
atom  2.61484000e+00 3.69164000e+00 2.42671000e+01	N
atom  1.30764000e-01 3.19665000e+00 2.19271000e+01	Si
atom  1.13287000e+00 4.65290000e+00 2.20016000e+01	N
atom  3.09769000e+00 2.99618000e+00 2.03741000e+01	N
atom  4.80980000e+00 3.17265000e+00 2.08746000e+01	Si
atom  5.04955000e+00 3.35505000e+00 2.25869000e+01	N
atom  7.44958000e+00 4.10646000e+00 2.16656000e+01	N
atom  6.67095000e+00 3.02939000e+00 2.28075000e+01	Si
atom  7.89739000e+00 2.98255000e+00 2.41759000e+01	N
atom  5.32998000e+00 4.50549000e+00 2.00718000e+01	N
atom  7.07501000e+00 4.36381000e+00 1.99585000e+01	Si
atom  3.87344000e+00 3.93002000e+00 2.94762000e+01	N
atom  5.43992000e-01 3.42800000e+00 2.75552000e+01	Si
atom  9.79246000e-01 2.78358000e+00 2.91475000e+01	N
atom  6.81947000e+00 4.35812000e+00 2.71190000e+01	Si
atom  9.10559000e+00 3.36808000e+00 2.53806000e+01	Si
atom  4.78940000e+00 4.92982000e+00 2.84461000e+01	Si
atom  6.41815000e+00 4.52348000e+00 2.89583000e+01	N
atom  4.98632000e+00 4.43104000e+00 2.68362000e+01	N
atom  8.29325000e+00 4.51810000e+00 2.62747000e+01	N
atom  2.22799000e+00 3.78743000e+00 3.32215000e+01	Si
atom  2.06852000e+00 3.85931000e+00 3.15026000e+01	N
atom  3.81317000e+00 4.30780000e+00 3.37399000e+01	N
atom  5.44980000e-01 3.42655000e+00 3.07092000e+01	Si
atom  3.08853000e+00 4.93980000e+00 3.06750000e+01	Si
atom  8.81154000e+00 3.01361000e+00 3.31888000e+01	N
atom  6.91445000e+00 3.93894000e+00 3.05673000e+01	Si
atom  5.76378000e+00 3.71046000e+00 3.18207000e+01	N
atom  9.14661000e+00 4.51522000e+00 3.40768000e+01	Si
atom  3.27971000e+00 3.05283000e+00 3.85459000e+01	N
atom  2.83378000e+00 4.02517000e+00 3.61309000e+01	N
atom  1.83753000e+00 3.51273000e+00 3.75394000e+01	Si
atom  4.25728000e+00 3.58558000e+00 3.52929000e+01	Si
atom  1.18335000e-01 3.21994000e+00 3.65960000e+01	N
atom  4.95565000e+00 3.27913000e+00 3.86137000e+01	Si
atom  8.30548000e+00 4.59732000e+00 3.56298000e+01	N
atom  5.66169000e+00 4.44556000e+00 3.57780000e+01	N
atom  8.28741000e+00 3.19010000e+00 3.76631000e+01	N
atom  9.11690000e+00 4.56309000e+00 3.71425000e+01	Si
atom  7.06716000e+00 3.43714000e+00 3.62615000e+01	Si
atom  2.76091000e+00 6.41219000e+00 4.55772000e-01	N
atom  -1.81626000e-01 5.55772000e+00 7.35238000e-01	N
atom  1.44677000e+00 5.26496000e+00 1.84202000e-01	Si
atom  2.65738000e+00 7.08562000e+00 4.36319000e+00	N
atom  4.36668000e+00 6.88927000e+00 1.12423000e+00	Si
atom  5.31398000e+00 5.48473000e+00 1.63981000e+00	N
atom  9.34849000e+00 6.35464000e+00 2.28027000e+00	N
atom  7.83498000e+00 5.14521000e+00 5.42063000e-01	N
atom  8.34904000e+00 7.26364000e+00 4.53172000e+00	N
atom  8.99490000e+00 6.19733000e+00 -1.32228000e-01	Si
atom  4.87400000e+00 4.98762000e+00 4.57292000e+00	N
atom  1.59674000e+00 5.87729000e+00 4.89196000e+00	Si
atom  2.89418000e+00 6.44728000e+00 7.61069000e+00	Si
atom  4.18488000e+00 6.56880000e+00 5.25789000e+00	Si
atom  2.56163000e+00 5.28933000e+00 6.26061000e+00	N
atom  1.78053000e-01 6.52886000e+00 5.70372000e+00	N
atom  3.13327000e+00 5.32800000e+00 8.81762000e+00	N
atom  4.31409000e+00 7.12922000e+00 6.84855000e+00	N
atom  7.02663000e+00 5.50635000e+00 6.05867000e+00	N
atom  6.90132000e+00 7.10693000e+00 5.32480000e+00	Si
atom  6.40175000e+00 6.46373000e+00 8.61862000e+00	N
atom  6.44472000e+00 5.02976000e+00 7.59504000e+00	Si
atom  2.45818000e+00 6.64435000e+00 1.25382000e+01	N
atom  8.19332000e-01 6.91309000e+00 1.30022000e+01	Si
atom  -4.31237000e-02 5.54303000e+00 1.21768000e+01	N
atom  3.07126000e+00 5.21927000e+00 1.32112000e+01	Si
atom  4.16875000e-02 7.16598000e+00 1.45811000e+01	N
atom  2.05871000e+00 5.19844000e+00 1.46847000e+01	N
atom  8.87198000e+00 6.03047000e+00 1.00435000e+01	N
atom  6.96639000e+00 5.72936000e+00 1.41844000e+01	N
atom  8.63596000e+00 6.00152000e+00 1.42591000e+01	Si
atom  7.20789000e+00 6.33297000e+00 1.01502000e+01	Si
atom  6.72911000e+00 5.56606000e+00 1.15404000e+01	N
atom  9.13638000e+00 6.70330000e+00 1.27052000e+01	N
atom  6.62417000e+00 7.25980000e+00 1.24728000e+01	Si
atom  1.66211000e+00 6.59546000e+00 1.71809000e+01	N
atom  2.87304000e+00 6.12004000e+00 1.59149000e+01	Si
atom  4.20515000e+00 5.52145000e+00 1.91278000e+01	Si
atom  1.73506000e+00 7.10447000e+00 1.88771000e+01	Si
atom  4.46193000e+00 5.30746000e+00 1.58024000e+01	N
atom  9.48815000e+00 7.02167000e+00 1.54112000e+01	N
atom  5.30567000e+00 6.87845000e+00 1.88217000e+01	N
atom  6.86544000e+00 6.53575000e+00 1.81543000e+01	Si
atom  7.72111000e+00 5.87081000e+00 1.94729000e+01	N
atom  6.70970000e+00 5.19649000e+00 1.70435000e+01	N
atom  6.04003000e+00 5.97935000e+00 1.56792000e+01	Si
atom  3.05689000e+00 6.26853000e+00 2.31113000e+01	N
atom  3.71742000e+00 7.10921000e+00 2.45530000e+01	Si
atom  2.85099000e+00 6.24932000e+00 2.00898000e+01	N
atom  3.22525000e+00 7.12012000e+00 2.15268000e+01	Si
atom  8.81457000e-01 5.82817000e+00 2.45868000e+01	N
atom  1.41139000e+00 5.19844000e+00 2.04067000e+01	Si
atom  -2.67141000e-01 7.15018000e+00 2.46299000e+01	Si
atom  4.24913000e-01 6.52555000e+00 1.98083000e+01	N
atom  1.91276000e+00 5.07321000e+00 2.34932000e+01	Si
atom  8.52526000e+00 5.37441000e+00 2.22195000e+01	Si
atom  7.56992000e+00 6.90747000e+00 2.23430000e+01	N
atom  5.42613000e+00 6.80576000e+00 2.44751000e+01	N
atom  9.43532000e+00 6.86298000e+00 2.46496000e+01	Si
atom  9.51135000e+00 5.39224000e+00 2.36523000e+01	N
atom  5.49097000e-01 5.62888000e+00 2.90816000e+01	Si
atom  3.01452000e+00 6.70521000e+00 2.60773000e+01	N
atom  1.37745000e+00 6.10025000e+00 2.62361000e+01	Si
atom  4.36715000e+00 6.57659000e+00 2.87718000e+01	N
atom  9.04990000e-01 5.09966000e+00 2.74639000e+01	N
atom  7.27685000e+00 6.17586000e+00 2.91703000e+01	Si
atom  6.35377000e+00 7.32349000e+00 2.59517000e+01	Si
atom  6.90798000e+00 6.31854000e+00 2.73470000e+01	N
atom  8.90462000e+00 6.17462000e+00 2.86784000e+01	N
atom  7.91978000e+00 7.35836000e+00 2.53277000e+01	N
atom  8.58881000e+00 6.17652000e+00 2.69670000e+01	Si
atom  4.29402000e+00 5.99746000e+00 3.13868000e+01	N
atom  1.78539000e+00 6.00556000e+00 3.02003000e+01	N
atom  -1.30251000e-01 5.89577000e+00 3.37403000e+01	Si
atom  1.43105000e+00 5.10295000e+00 3.39459000e+01	N
atom  7.95629000e-01 7.22249000e+00 3.09285000e+01	Si
atom  -2.87849000e-01 6.36956000e+00 3.19551000e+01	N
atom  6.34353000e+00 5.82623000e+00 3.35561000e+01	N
atom  7.53805000e+00 6.27225000e+00 3.24567000e+01	Si
atom  9.16860000e+00 5.99200000e+00 3.30648000e+01	N
atom  7.65391000e+00 5.40574000e+00 3.09225000e+01	N
atom  4.73694000e+00 7.31971000e+00 3.02991000e+01	Si
atom  4.96657000e+00 5.01689000e+00 3.26397000e+01	Si
atom  2.60634000e+00 5.44830000e+00 3.51127000e+01	Si
atom  1.81395000e+00 6.58976000e+00 3.62650000e+01	N
atom  7.88687000e-01 6.38865000e+00 3.76003000e+01	Si
atom  4.05965000e+00 6.50816000e+00 3.51374000e+01	N
atom  3.68461000e+00 7.20165000e+00 3.79694000e+01	N
atom  1.36428000e+00 4.95139000e+00 3.84182000e+01	N
atom  5.80330000e+00 6.07537000e+00 3.52448000e+01	Si
atom  5.26682000e+00 6.53981000e+00 3.82851000e+01	Si
atom  6.02924000e+00 6.95095000e+00 3.68249000e+01	N
atom  9.14679000e+00 6.11112000e+00 3.80060000e+01	N
atom  5.40132000e+00 4.94019000e+00 3.87403000e+01	N
atom  2.87871000e+00 8.47124000e+00 3.34506000e+00	Si
atom  4.83428000e-01 9.15748000e+00 4.42124000e+00	N
atom  1.78006000e+00 9.20959000e+00 2.12348000e+00	N
atom  1.85296000e-01 9.39917000e+00 2.70840000e+00	Si
atom  4.17824000e+00 8.16685000e+00 2.27671000e+00	N
atom  5.73206000e+00 8.59309000e+00 3.23844000e+00	Si
atom  7.14269000e+00 8.30901000e+00 2.26348000e+00	N
atom  8.64259000e+00 7.83119000e+00 2.86390000e+00	Si
atom  6.85015000e+00 8.50244000e+00 5.95481000e-01	Si
atom  5.46372000e+00 7.48455000e+00 4.46973000e+00	N
atom  8.32933000e+00 7.85155000e+00 -8.98089000e-02	N
atom  5.46155000e+00 7.62957000e+00 -1.41438000e-01	N
atom  3.01911000e-01 9.44273000e+00 9.34015000e+00	N
atom  1.76247000e+00 7.64872000e+00 7.85447000e+00	N
atom  7.16607000e-01 8.97977000e+00 7.71259000e+00	Si
atom  5.73642000e+00 7.83314000e+00 7.73568000e+00	Si
atom  5.37184000e+00 9.29954000e+00 8.60593000e+00	N
atom  6.89863000e+00 8.35168000e+00 6.54498000e+00	N
atom  8.53746000e+00 8.72938000e+00 8.52295000e+00	N
atom  8.28512000e+00 9.48209000e+00 6.78837000e+00	Si
atom  5.97094000e-01 8.37145000e+00 1.19417000e+01	N
atom  3.54899000e+00 7.92538000e+00 1.21314000e+01	Si
atom  3.88092000e+00 8.12385000e+00 1.04773000e+01	N
atom  2.99503000e+00 9.37373000e+00 1.29197000e+01	N
atom  4.32055000e+00 9.67360000e+00 9.94101000e+00	Si
atom  4.75212000e+00 8.33932000e+00 1.45413000e+01	Si
atom  7.40982000e+00 8.61712000e+00 1.33316000e+01	N
atom  9.00238000e+00 8.45664000e+00 1.28258000e+01	Si
atom  6.98914000e+00 7.92931000e+00 1.09073000e+01	N
atom  7.98173000e+00 9.05332000e+00 1.00656000e+01	Si
atom  5.00353000e+00 7.52985000e+00 1.30194000e+01	N
atom  9.37817000e+00 9.03516000e+00 1.11564000e+01	N
atom  3.26867000e+00 7.67543000e+00 1.52307000e+01	N
atom  1.69627000e+00 8.81273000e+00 1.90886000e+01	N
atom  5.38126000e-01 9.26574000e+00 1.66245000e+01	N
atom  2.50800000e-01 9.44870000e+00 1.83645000e+01	Si
atom  4.04409000e-01 7.51962000e+00 1.63703000e+01	Si
atom  4.29331000e+00 9.45166000e+00 1.97005000e+01	N
atom  6.76064000e+00 8.96529000e+00 1.65071000e+01	Si
atom  9.49204000e+00 7.66343000e+00 1.70057000e+01	Si
atom  5.89741000e+00 7.69761000e+00 1.56908000e+01	N
atom  7.77599000e+00 7.87103000e+00 1.75240000e+01	N
atom  2.48546000e+00 8.71181000e+00 2.17220000e+01	N
atom  4.50030000e-01 8.57075000e+00 2.37923000e+01	N
atom  2.00501000e+00 9.14742000e+00 2.32736000e+01	Si
atom  3.50815000e+00 8.84282000e+00 2.41668000e+01	N
atom  2.64873000e+00 9.65026000e+00 2.02666000e+01	Si
atom  9.50175000e+00 8.04946000e+00 2.02461000e+01	N
atom  8.20769000e+00 8.22532000e+00 2.13767000e+01	Si
atom  6.19526000e+00 9.12064000e+00 2.33882000e+01	N
atom  6.96136000e+00 8.91841000e+00 2.03760000e+01	N
atom  8.82117000e+00 9.37992000e+00 2.25413000e+01	N
atom  5.36966000e+00 8.17505000e+00 2.00799000e+01	Si
atom  4.92479000e+00 7.49545000e+00 2.15777000e+01	N
atom  6.00903000e+00 7.52276000e+00 2.29569000e+01	Si
atom  6.93325000e-01 8.16103000e+00 2.80321000e+01	Si
atom  3.75361000e+00 7.43762000e+00 2.73845000e+01	Si
atom  1.72934000e-01 7.46336000e+00 2.63774000e+01	N
atom  2.37405000e+00 8.37835000e+00 2.80746000e+01	N
atom  3.14551000e+00 9.48952000e+00 2.91384000e+01	Si
atom  -7.59854000e-02 7.27085000e+00 2.93213000e+01	N
atom  5.11032000e+00 8.25713000e+00 2.67165000e+01	N
atom  1.13900000e+00 8.80576000e+00 3.13763000e+01	N
atom  3.93492000e+00 8.90964000e+00 3.05970000e+01	N
atom  -4.70404000e-01 9.06050000e+00 3.41197000e+01	Si
atom  7.51758000e+00 8.00208000e+00 3.24206000e+01	N
atom  7.80116000e+00 8.40931000e+00 3.07945000e+01	Si
atom  7.64316000e+00 8.96813000e+00 3.37960000e+01	Si
atom  9.52192000e+00 7.93553000e+00 3.07650000e+01	N
atom  9.03589000e+00 8.72395000e+00 3.47157000e+01	N
atom  6.52821000e+00 7.54332000e+00 2.99960000e+01	N
atom  8.89717000e-01 7.83278000e+00 3.86806000e+01	N
atom  2.51995000e+00 7.61294000e+00 3.91853000e+01	Si
atom  3.28997000e+00 9.08960000e+00 3.59125000e+01	N
atom  -1.11842000e-01 9.26192000e+00 3.84056000e+01	Si
atom  3.30998000e+00 7.48308000e+00 3.62996000e+01	Si
atom  3.17603000e+00 9.08015000e+00 3.97073000e+01	N
atom  6.32342000e+00 8.86402000e+00 3.49994000e+01	N
atom  8.92053000e+00 9.00713000e+00 3.87309000e+01	Si
atom  6.34173000e+00 8.68994000e+00 3.67135000e+01	Si
atom  4.79570000e+00 9.22386000e+00 3.93061000e+01	Si
atom  7.89367000e+00 9.12931000e+00 3.73009000e+01	N
atom  5.15094000e+00 9.55468000e+00 3.76502000e+01	N
atom  9.34275000e+00 9.22297000e+00 3.63679000e+01	Si
atom  3.56464000e+00 1.15212000e+01 1.34595000e+00	N
atom  2.50173000e+00 1.02188000e+01 8.63066000e-01	Si
atom  1.26758000e+00 1.14644000e+01 3.91223000e-01	N
atom  -4.00723000e-01 1.13890000e+01 7.61573000e-01	Si
atom  -3.85134000e-01 1.09699000e+01 2.54159000e+00	N
atom  1.41837000e+00 1.19786000e+01 4.91698000e+00	N
atom  4.37252000e+00 1.08771000e+01 4.77755000e+00	Si
atom  3.04559000e+00 9.84864000e+00 4.38182000e+00	N
atom  5.96523000e+00 1.00602000e+01 3.94258000e-01	N
atom  5.77350000e+00 1.02270000e+01 3.75598000e+00	N
atom  8.32732000e+00 1.09802000e+01 2.44735000e+00	N
atom  6.81349000e+00 1.15061000e+01 3.27201000e+00	Si
atom  5.24643000e+00 1.16897000e+01 7.86755000e-01	Si
atom  8.88722000e+00 1.13657000e+01 8.60880000e-01	Si
atom  9.38048000e+00 1.05064000e+01 3.72924000e+00	Si
atom  1.53983000e+00 1.02711000e+01 5.14413000e+00	Si
atom  1.69147000e+00 1.01717000e+01 6.82412000e+00	N
atom  2.89178000e+00 1.11273000e+01 7.47365000e+00	Si
atom  2.98320000e+00 1.05848000e+01 9.17326000e+00	N
atom  4.42309000e+00 1.08296000e+01 6.51585000e+00	N
atom  1.41619000e+00 1.07797000e+01 9.79037000e+00	Si
atom  8.31293000e+00 1.03331000e+01 5.11412000e+00	N
atom  7.35419000e+00 1.09832000e+01 7.27026000e+00	N
atom  5.69151000e+00 1.07620000e+01 7.75232000e+00	Si
atom  8.13163000e+00 1.15582000e+01 8.74155000e+00	Si
atom  7.89717000e+00 1.18587000e+01 5.80653000e+00	Si
atom  4.23230000e+00 1.05803000e+01 1.30063000e+01	Si
atom  1.16813000e+00 1.11702000e+01 1.14549000e+01	N
atom  3.49609000e-01 1.01050000e+01 1.39856000e+01	N
atom  1.35535000e+00 9.82292000e+00 1.25620000e+01	Si
atom  7.04245000e+00 1.01282000e+01 1.40383000e+01	Si
atom  4.97241000e+00 1.03378000e+01 1.14294000e+01	N
atom  6.43379000e+00 1.12720000e+01 1.13487000e+01	Si
atom  7.36452000e+00 1.12712000e+01 1.27995000e+01	N
atom  5.28584000e+00 9.97457000e+00 1.41958000e+01	N
atom  7.41911000e+00 1.06997000e+01 1.00876000e+01	N
atom  2.59269000e+00 1.07812000e+01 1.56463000e+01	N
atom  9.00006000e-01 1.05780000e+01 1.55693000e+01	Si
atom  1.65938000e-02 1.11612000e+01 1.86291000e+01	N
atom  3.89724000e+00 1.16983000e+01 1.80300000e+01	N
atom  4.12499000e+00 1.10720000e+01 1.63422000e+01	Si
atom  -2.91707000e-01 1.17795000e+01 1.60544000e+01	N
atom  9.58071000e+00 1.00358000e+01 1.54282000e+01	Si
atom  6.51261000e+00 1.13105000e+01 1.91341000e+01	N
atom  7.89315000e+00 9.93107000e+00 1.55431000e+01	N
atom  5.05446000e+00 1.05592000e+01 1.86218000e+01	Si
atom  5.34692000e+00 9.92316000e+00 1.70147000e+01	N
atom  1.83112000e+00 1.09119000e+01 2.34499000e+01	N
atom  2.11030000e+00 1.12414000e+01 2.06270000e+01	N
atom  2.70800000e+00 1.16686000e+01 2.21465000e+01	Si
atom  4.35895000e+00 1.11307000e+01 2.27142000e+01	N
atom  -3.24272000e-01 1.12064000e+01 2.49580000e+01	N
atom  4.80435000e+00 9.97189000e+00 2.39648000e+01	Si
atom  7.47956000e+00 1.02671000e+01 2.31890000e+01	Si
atom  7.26938000e+00 1.15267000e+01 2.19307000e+01	N
atom  7.45614000e+00 1.06852000e+01 2.04242000e+01	Si
atom  8.10403000e+00 1.10469000e+01 2.45590000e+01	N
atom  9.12764000e+00 1.08165000e+01 2.01173000e+01	N
atom  1.38319000e+00 1.16434000e+01 2.50279000e+01	Si
atom  3.27441000e+00 1.17346000e+01 2.79098000e+01	Si
atom  1.89799000e+00 1.07351000e+01 2.91379000e+01	N
atom  8.04428000e-01 1.08307000e+01 2.78414000e+01	Si
atom  1.90473000e+00 1.12576000e+01 2.66559000e+01	N
atom  4.33403000e+00 1.03582000e+01 2.81244000e+01	N
atom  7.26980000e+00 1.04427000e+01 2.74843000e+01	N
atom  8.07063000e+00 1.07523000e+01 2.90095000e+01	Si
atom  5.18012000e+00 1.07022000e+01 2.55763000e+01	N
atom  7.91757000e+00 1.15517000e+01 2.62575000e+01	Si
atom  5.56428000e+00 9.92732000e+00 2.70529000e+01	Si
atom  2.35256000e+00 1.13132000e+01 3.19042000e+01	N
atom  3.79328000e+00 1.01896000e+01 3.18138000e+01	Si
atom  3.04356000e-02 1.13604000e+01 3.08701000e+01	N
atom  8.14344000e-01 1.02962000e+01 3.22054000e+01	Si
atom  2.68374000e+00 9.96846000e+00 3.44987000e+01	Si
atom  4.10973000e+00 1.00029000e+01 3.35266000e+01	N
atom  1.71671000e+00 1.19637000e+01 3.04053000e+01	Si
atom  1.07033000e+00 9.71205000e+00 3.39185000e+01	N
atom  6.59552000e+00 1.10316000e+01 3.15583000e+01	Si
atom  4.96831000e+00 1.12940000e+01 3.12206000e+01	N
atom  6.97985000e+00 1.05132000e+01 3.33134000e+01	N
atom  7.45894000e+00 1.00396000e+01 3.05247000e+01	N
atom  5.53013000e+00 1.02739000e+01 3.43567000e+01	Si
atom  3.93526000e+00 1.05761000e+01 3.66960000e+01	Si
atom  2.77655000e+00 1.13555000e+01 3.55544000e+01	N
atom  3.33409000e+00 1.14804000e+01 3.81381000e+01	N
atom  6.85935000e-01 1.06930000e+01 3.76676000e+01	N
atom  1.65323000e+00 1.18567000e+01 3.86206000e+01	Si
atom  -2.13693000e-01 1.20863000e+01 3.69175000e+01	Si
atom  9.60850000e+00 1.09584000e+01 3.63318000e+01	N
atom  8.99231000e+00 1.17283000e+01 3.77870000e+01	Si
atom  5.28214000e+00 1.12965000e+01 3.57261000e+01	N
atom  9.27476000e+00 1.06294000e+01 3.91431000e+01	N
atom  8.57347000e-01 1.33061000e+01 2.36478000e+00	N
atom  2.35440000e+00 1.29337000e+01 1.25717000e+00	Si
atom  3.97550000e+00 1.24591000e+01 4.27393000e+00	N
atom  3.35820000e+00 1.40988000e+01 2.12295000e+00	N
atom  2.43754000e-01 1.23070000e+01 3.63862000e+00	Si
atom  4.67500000e+00 1.33570000e+01 2.98619000e+00	Si
atom  8.13699000e+00 1.28892000e+01 4.53247000e-01	N
atom  5.83690000e+00 1.23909000e+01 2.19794000e+00	N
atom  6.89759000e+00 1.26108000e+01 4.66369000e+00	N
atom  8.88141000e+00 1.42886000e+01 1.18318000e+00	Si
atom  2.70482000e+00 1.31368000e+01 5.37126000e+00	Si
atom  1.70548000e+00 1.36964000e+01 8.20701000e+00	Si
atom  2.91909000e+00 1.29679000e+01 7.15822000e+00	N
atom  8.41037000e-01 1.22057000e+01 8.89058000e+00	N
atom  4.54277000e+00 1.35026000e+01 7.63474000e+00	Si
atom  9.00666000e+00 1.31009000e+01 6.18160000e+00	N
atom  6.53155000e+00 1.42839000e+01 4.96833000e+00	Si
atom  7.78350000e+00 1.32469000e+01 9.10454000e+00	N
atom  6.13087000e+00 1.33936000e+01 9.56520000e+00	Si
atom  5.34541000e+00 1.22108000e+01 8.50895000e+00	N
atom  5.50154000e+00 1.42897000e+01 6.34077000e+00	N
atom  3.10498000e-01 1.30115000e+01 1.37774000e+01	N
atom  4.86703000e-01 1.26939000e+01 1.20183000e+01	Si
atom  3.88568000e+00 1.34074000e+01 1.43638000e+01	Si
atom  1.54634000e+00 1.41495000e+01 1.20338000e+01	N
atom  3.70659000e+00 1.21326000e+01 1.32043000e+01	N
atom  6.05514000e+00 1.29717000e+01 1.12616000e+01	N
atom  7.85752000e+00 1.37519000e+01 1.32002000e+01	N
atom  8.76237000e+00 1.23744000e+01 1.25733000e+01	Si
atom  6.29100000e+00 1.40563000e+01 1.25763000e+01	Si
atom  9.07645000e+00 1.40552000e+01 9.91891000e+00	Si
atom  1.30442000e+00 1.38623000e+01 1.97844000e+01	N
atom  4.33513000e+00 1.32860000e+01 1.76000000e+01	Si
atom  2.48324000e+00 1.44037000e+01 1.48186000e+01	N
atom  7.71804000e+00 1.33746000e+01 1.73290000e+01	N
atom  9.43630000e+00 1.30318000e+01 1.69500000e+01	Si
atom  4.55993000e+00 1.28546000e+01 1.59084000e+01	N
atom  6.99625000e+00 1.29420000e+01 1.88487000e+01	Si
atom  5.50294000e+00 1.38080000e+01 1.88388000e+01	N
atom  3.30527000e+00 1.32836000e+01 2.20957000e+01	N
atom  3.40083000e-01 1.41247000e+01 2.11329000e+01	Si
atom  -1.99297000e-01 1.24380000e+01 2.12282000e+01	N
atom  8.59762000e-01 1.21514000e+01 1.98178000e+01	Si
atom  4.96768000e+00 1.32857000e+01 2.42852000e+01	N
atom  4.87919000e+00 1.28052000e+01 2.26821000e+01	Si
atom  7.61795000e+00 1.33921000e+01 2.16485000e+01	Si
atom  5.87393000e+00 1.37229000e+01 2.15950000e+01	N
atom  8.22451000e+00 1.32456000e+01 2.00126000e+01	N
atom  1.63469000e+00 1.34115000e+01 2.48023000e+01	N
atom  2.64911000e+00 1.38050000e+01 2.62032000e+01	Si
atom  -1.73878000e-01 1.36235000e+01 2.74934000e+01	Si
atom  1.52248000e+00 1.39043000e+01 2.75212000e+01	N
atom  3.94797000e+00 1.28367000e+01 2.67699000e+01	N
atom  3.19853000e+00 1.27257000e+01 2.94082000e+01	N
atom  2.19423000e+00 1.42167000e+01 2.91406000e+01	Si
atom  8.59302000e+00 1.44122000e+01 2.48376000e+01	N
atom  8.31651000e+00 1.24293000e+01 2.93955000e+01	N
atom  5.17812000e+00 1.23590000e+01 2.56881000e+01	Si
atom  6.73485000e+00 1.28341000e+01 2.63428000e+01	N
atom  7.31425000e+00 1.43585000e+01 2.58845000e+01	Si
atom  9.57810000e-01 1.36336000e+01 3.02633000e+01	N
atom  -2.55784000e-02 1.35708000e+01 3.43322000e+01	Si
atom  3.64790000e+00 1.37411000e+01 3.17567000e+01	N
atom  1.09451000e+00 1.37317000e+01 3.29428000e+01	N
atom  3.33401000e+00 1.35359000e+01 3.44068000e+01	N
atom  2.63905000e+00 1.29403000e+01 3.28959000e+01	Si
atom  4.50625000e+00 1.28736000e+01 3.05302000e+01	Si
atom  7.39228000e+00 1.25646000e+01 3.19619000e+01	N
atom  7.59792000e+00 1.35284000e+01 3.05312000e+01	Si
atom  5.89996000e+00 1.38476000e+01 3.00534000e+01	N
atom  8.04222000e+00 1.20255000e+01 3.34510000e+01	Si
atom  6.89087000e-01 1.29363000e+01 3.57778000e+01	N
atom  4.64635000e-01 1.31817000e+01 3.82912000e+01	N
atom  2.42021000e+00 1.29239000e+01 3.57822000e+01	Si
atom  3.91402000e+00 1.30790000e+01 3.85203000e+01	Si
atom  3.07190000e+00 1.38473000e+01 3.71938000e+01	N
atom  2.68166000e+00 1.35616000e+01 3.96317000e+01	N
atom  7.08261000e+00 1.32592000e+01 3.91259000e+01	Si
atom  5.64768000e+00 1.40309000e+01 3.62727000e+01	N
atom  7.40427000e+00 1.22170000e+01 3.76579000e+01	N
atom  7.47760000e+00 1.27989000e+01 3.49191000e+01	N
atom  5.43144000e+00 1.29118000e+01 3.93920000e+01	N
atom  6.42953000e+00 1.24636000e+01 3.62591000e+01	Si
atom  3.48430000e+00 1.57730000e+01 1.88830000e+00	Si
atom  -7.27323000e-02 1.47215000e+01 1.88044000e+00	Si
atom  3.50673000e-01 1.64678000e+01 2.16239000e+00	N
atom  4.09118000e+00 1.56675000e+01 4.65268000e+00	Si
atom  4.43333000e-01 1.49051000e+01 8.98470000e-02	N
atom  9.10105000e-01 1.66738000e+01 5.63266000e-01	Si
atom  3.60629000e+00 1.67317000e+01 3.34215000e+00	N
atom  -7.59067000e-03 1.62305000e+01 4.99740000e+00	N
atom  2.61336000e+00 1.68026000e+01 7.46072000e-01	N
atom  8.24563000e+00 1.62889000e+01 6.33202000e-02	Si
atom  5.50320000e+00 1.48056000e+01 3.63723000e+00	N
atom  7.78218000e+00 1.55407000e+01 1.67814000e+00	N
atom  6.24813000e+00 1.58754000e+01 2.41813000e+00	Si
atom  5.06574000e+00 1.60633000e+01 1.11291000e+00	N
atom  2.63363000e+00 1.48408000e+01 5.17602000e+00	N
atom  3.79397000e+00 1.57539000e+01 9.50372000e+00	Si
atom  8.02406000e-01 1.48147000e+01 7.14859000e+00	N
atom  1.45278000e+00 1.58382000e+01 5.87463000e+00	Si
atom  2.48227000e+00 1.46453000e+01 9.41906000e+00	N
atom  7.00366000e+00 1.65011000e+01 7.70334000e+00	N
atom  7.84688000e+00 1.53757000e+01 5.19084000e+00	N
atom  5.45917000e+00 1.58414000e+01 7.35441000e+00	Si
atom  9.35393000e+00 1.48550000e+01 5.95125000e+00	Si
atom  5.14346000e+00 1.46841000e+01 8.84985000e+00	N
atom  4.66707000e+00 1.66887000e+01 5.99232000e+00	N
atom  9.58346000e+00 1.63634000e+01 6.72969000e+00	N
atom  3.67611000e+00 1.58269000e+01 1.12477000e+01	N
atom  2.01176000e+00 1.53671000e+01 1.09643000e+01	Si