lattice_vector  3.99434194e+01 0.00000000e+00 0.00000000e+00
lattice_vector  2.44582904e-15 3.99434194e+01 0.00000000e+00
lattice_vector  2.44582904e-15 2.44582904e-15 3.99434194e+01
atom  -2.49040000e-03 3.08013000e+00 2.91692000e+00	Si
atom  1.60905000e+00 3.37826000e+00 1.93627000e+00	N
atom  1.36457000e+00 5.09960000e+00 2.15523000e+00	Si
atom  -2.93682000e-01 4.79257000e+00 2.80068000e+00	N
atom  -1.19133000e-01 2.24888000e+00 4.38197000e+00	N
atom  7.71688000e-01 1.44824000e+00 -4.48764000e-02	N
atom  1.25657000e+00 6.03606000e+00 6.75206000e-01	N
atom  5.03358000e-01 9.26393000e+00 2.18841000e+00	Si
atom  1.11370000e+00 7.44448000e+00 3.96943000e+00	Si
atom  6.03409000e-01 8.86769000e+00 4.50932000e-01	N
atom  -3.29913000e-01 8.07985000e+00 3.19119000e+00	N
atom  2.06919000e-01 7.25254000e+00 1.26499000e-01	Si
atom  -2.89935000e-02 8.74769000e-01 6.86804000e+00	N
atom  8.43447000e-01 4.21614000e+00 8.73980000e+00	N
atom  1.91779000e-01 2.41619000e+00 6.05530000e+00	Si
atom  -2.35553000e-03 8.35695000e-01 8.64471000e+00	Si
atom  1.73773000e+00 3.02839000e+00 6.24072000e+00	N
atom  1.87046000e+00 8.78647000e-01 8.70345000e+00	N
atom  -3.29842000e-01 2.14261000e+00 9.88044000e+00	N
atom  -8.60690000e-02 6.29996000e+00 5.05492000e+00	N
atom  5.31174000e-01 8.15966000e+00 7.51128000e+00	N
atom  -4.13168000e-01 8.50650000e+00 8.88819000e+00	Si
atom  1.27276000e+00 9.23267000e+00 6.32203000e+00	Si
atom  -2.83209000e-01 9.96058000e+00 5.76067000e+00	N
atom  5.65863000e-01 6.56746000e+00 6.61662000e+00	Si
atom  -4.27080000e-01 1.02675000e+01 9.02939000e+00	N
atom  1.47938000e-01 4.22770000e+00 1.16952000e+01	N
atom  7.53717000e-01 3.37790000e+00 1.02739000e+01	Si
atom  1.47795000e+00 4.53488000e+00 1.42805000e+01	N
atom  1.12347000e+00 5.22592000e+00 1.27311000e+01	Si
atom  1.51532000e+00 9.55286000e+00 1.22924000e+01	N
atom  5.86136000e-01 6.87536000e+00 1.26381000e+01	N
atom  -1.90681000e-01 9.71589000e+00 1.43768000e+01	N
atom  1.52889000e+00 7.96982000e+00 1.17227000e+01	Si
atom  6.89407000e-01 8.42111000e+00 1.02554000e+01	N
atom  1.44553000e+00 1.00626000e+01 1.39655000e+01	Si
atom  5.96460000e-01 1.01466000e+01 1.06951000e+01	Si
atom  9.97656000e-01 2.71971000e+00 1.63488000e+01	N
atom  2.98423000e-01 4.23022000e+00 1.85356000e+01	N
atom  1.65647000e+00 3.77209000e+00 1.76777000e+01	Si
atom  2.93319000e-01 3.72786000e+00 1.51678000e+01	Si
atom  4.37398000e-01 1.06178000e+00 1.63576000e+01	Si
atom  -5.66331000e-01 8.77224000e+00 1.58404000e+01	Si
atom  -1.49818000e-01 8.10987000e+00 1.86475000e+01	Si
atom  4.34254000e-01 9.22910000e+00 1.72069000e+01	N
atom  4.74779000e-02 1.19431000e+00 2.11020000e+01	Si
atom  1.32783000e-01 2.85012000e+00 2.13008000e+01	N
atom  3.23547000e-01 4.25505000e+00 2.02562000e+01	Si
atom  1.28802000e+00 4.10505000e+00 2.34717000e+01	N
atom  -4.44612000e-02 3.17853000e+00 2.30637000e+01	Si
atom  1.53258000e+00 6.38273000e-01 2.03555000e+01	N
atom  1.61501000e-01 2.25022000e+00 2.46592000e+01	N
atom  1.69663000e+00 5.14940000e+00 2.08538000e+01	N
atom  1.75934000e+00 5.37529000e+00 2.25531000e+01	Si
atom  4.19601000e-01 6.44154000e+00 2.28010000e+01	N
atom  6.91768000e-01 7.85642000e+00 2.01408000e+01	N
atom  1.43533000e-02 6.40862000e+00 2.45373000e+01	Si
atom  -1.27508000e-01 1.00571000e+01 2.38556000e+01	N
atom  -2.26090000e-01 6.83114000e+00 2.11970000e+01	Si
atom  1.04171000e+00 3.70831000e+00 2.51739000e+01	Si
atom  1.44004000e+00 7.47955000e-01 2.88593000e+01	N
atom  3.18662000e-01 3.45835000e+00 2.79292000e+01	N
atom  1.36731000e-01 1.82051000e+00 2.83676000e+01	Si
atom  2.54481000e-02 5.03619000e+00 2.56718000e+01	N
atom  2.54873000e-01 4.12956000e+00 2.96658000e+01	Si
atom  -3.77363000e-01 9.15631000e-01 2.54742000e+01	Si
atom  9.44563000e-01 6.85795000e+00 2.90951000e+01	Si
atom  -6.43135000e-02 9.04619000e+00 2.68286000e+01	N
atom  1.54478000e+00 5.31594000e+00 2.96740000e+01	N
atom  1.48718000e+00 7.12398000e+00 2.51230000e+01	N
atom  1.48788000e+00 8.28456000e+00 2.64260000e+01	Si
atom  1.29522000e+00 4.27895000e+00 3.34409000e+01	N
atom  1.04327000e+00 2.93340000e+00 3.22671000e+01	Si
atom  1.20049000e+00 2.87868000e+00 3.04935000e+01	N
atom  -3.42247000e-02 4.88007000e+00 3.45236000e+01	Si
atom  -6.74926000e-02 6.33965000e-01 3.43782000e+01	N
atom  1.96518000e+00 1.59891000e+00 3.27991000e+01	N
atom  1.48708000e+00 3.14788000e-01 3.37884000e+01	Si
atom  6.94253000e-01 7.53828000e+00 3.37898000e+01	Si
atom  2.56729000e-01 8.92102000e+00 3.27120000e+01	N
atom  6.50021000e-01 7.80389000e+00 3.04830000e+01	N
atom  1.59623000e+00 8.82112000e+00 3.15187000e+01	Si
atom  4.59767000e-02 3.08172000e+00 3.76642000e+01	N
atom  6.01889000e-01 1.51529000e+00 3.82347000e+01	Si
atom  1.34217000e+00 4.12608000e+00 3.71260000e+01	Si
atom  4.65304000e-01 5.28405000e+00 3.61814000e+01	N
atom  8.46614000e-01 7.04265000e+00 3.84554000e+01	N
atom  1.15432000e+00 7.70341000e+00 3.54856000e+01	N
atom  1.40648000e+00 9.92100000e+00 3.92677000e+01	Si
atom  2.94914000e-01 6.90549000e+00 3.68069000e+01	Si
atom  1.42778000e+00 1.37055000e+01 1.89683000e+00	N
atom  4.29654000e-01 1.09169000e+01 2.60487000e+00	N
atom  -2.34266000e-01 1.41077000e+01 1.16763000e+00	Si
atom  1.56088000e+00 1.19649000e+01 1.78912000e+00	Si
atom  1.86983000e-01 1.10262000e+01 4.41934000e+00	Si
atom  1.56935000e+00 1.15220000e+01 9.78401000e-02	N
atom  -3.66208000e-02 1.26867000e+01 4.81478000e+00	N
atom  4.08455000e-02 1.96413000e+01 2.42899000e+00	Si
atom  -6.22227000e-02 1.73499000e+01 4.03696000e-01	Si
atom  1.62339000e+00 1.98827000e+01 3.02977000e+00	N
atom  1.42251000e+00 1.82259000e+01 1.97722000e-01	N
atom  1.21941000e+00 1.99423000e+01 1.03013000e-01	Si
atom  6.29977000e-01 1.59281000e+01 4.77833000e+00	Si
atom  -2.98562000e-01 1.57815000e+01 1.09520000e+00	N
atom  3.84926000e-01 1.75799000e+01 4.95428000e+00	N
atom  3.55994000e-01 1.32965000e+01 6.44963000e+00	Si
atom  1.97421000e-01 1.50165000e+01 6.20240000e+00	N
atom  3.49456000e-03 1.51878000e+01 8.78168000e+00	N
atom  1.83160000e+00 1.06609000e+01 4.90334000e+00	N
atom  1.78215000e+00 1.95690000e+01 4.77797000e+00	Si
atom  -2.25414000e-01 1.78644000e+01 9.38950000e+00	Si
atom  -3.90257000e-01 1.85000000e+01 6.22608000e+00	Si
atom  1.54601000e+00 1.54597000e+01 9.49719000e+00	Si
atom  5.91562000e-03 1.76023000e+01 7.71475000e+00	N
atom  5.86697000e-01 1.99158000e+01 6.01812000e+00	N
atom  1.14868000e+00 1.29098000e+01 1.10201000e+01	Si
atom  1.00612000e+00 1.30796000e+01 1.26590000e+01	N
atom  -4.46419000e-01 1.28861000e+01 1.03610000e+01	N
atom  1.77187000e+00 1.13962000e+01 1.04589000e+01	N
atom  1.36882000e+00 1.47454000e+01 1.47634000e+01	N
atom  1.00468000e+00 1.70409000e+01 1.31185000e+01	N
atom  1.04845000e+00 1.69382000e+01 1.02608000e+01	N
atom  -1.84987000e-01 1.99064000e+01 1.40023000e+01	N
atom  1.68288000e+00 1.99800000e+01 1.04395000e+01	Si
atom  1.74273000e+00 1.64368000e+01 1.45866000e+01	Si
atom  7.45077000e-02 1.95607000e+01 9.95351000e+00	N
atom  -1.88544000e-01 1.43485000e+01 1.56724000e+01	Si
atom  3.34285000e-01 1.35620000e+01 1.71027000e+01	N
atom  1.64622000e+00 1.38372000e+01 1.82957000e+01	Si
atom  7.12625000e-01 1.32904000e+01 1.96686000e+01	N
atom  1.47599000e+00 1.79109000e+01 1.56624000e+01	N
atom  1.45991000e+00 1.55408000e+01 1.82094000e+01	N
atom  -4.23485000e-01 1.90473000e+01 1.84199000e+01	Si
atom  -3.96823000e-02 1.86333000e+01 1.51737000e+01	Si
atom  1.30821000e+00 1.90915000e+01 1.83327000e+01	N
atom  -3.38395000e-01 1.58346000e+01 1.80657000e+01	Si
atom  7.19234000e-01 1.35272000e+01 2.14139000e+01	Si
atom  2.38999000e-01 1.19870000e+01 2.21450000e+01	N
atom  1.11025000e+00 1.07222000e+01 2.29268000e+01	Si
atom  3.03013000e-01 1.87141000e+01 2.33634000e+01	N
atom  5.97974000e-01 1.95650000e+01 2.18386000e+01	Si
atom  1.41255000e+00 1.95241000e+01 2.45852000e+01	Si
atom  3.95265000e-01 1.39168000e+01 2.85960000e+01	N
atom  -1.09081000e-01 1.12047000e+01 2.90985000e+01	N
atom  3.16578000e-01 1.06183000e+01 2.75662000e+01	Si
atom  1.56401000e+00 1.14087000e+01 2.95376000e+01	Si
atom  -3.02583000e-01 1.17579000e+01 2.64281000e+01	N
atom  1.57520000e+00 1.51536000e+01 2.81874000e+01	Si
atom  -5.24106000e-01 1.31822000e+01 2.73670000e+01	Si
atom  6.21077000e-01 1.64055000e+01 2.73512000e+01	N
atom  1.25460000e+00 1.89202000e+01 2.81284000e+01	N
atom  1.76510000e+00 1.76724000e+01 2.70595000e+01	Si
atom  1.04288000e+00 1.37248000e+01 3.16227000e+01	N
atom  1.23823000e+00 1.27566000e+01 3.30045000e+01	Si
atom  -1.03240000e-01 1.40789000e+01 3.03336000e+01	Si
atom  1.40437000e+00 1.37628000e+01 3.44858000e+01	N
atom  -1.59615000e-01 1.18444000e+01 3.34088000e+01	N
atom  1.73633000e+00 1.04328000e+01 3.09031000e+01	N
atom  1.79011000e+00 1.54693000e+01 3.37956000e+01	Si
atom  6.41095000e-01 1.65709000e+01 3.30504000e+01	N
atom  1.31632000e+00 1.62492000e+01 3.13938000e+01	Si
atom  -2.20056000e-01 1.57487000e+01 3.06043000e+01	N
atom  -1.34355000e-01 1.96618000e+01 3.37105000e+01	N
atom  -3.25020000e-01 1.80052000e+01 3.31515000e+01	Si
atom  1.34748000e+00 1.28437000e+01 3.59680000e+01	Si
atom  2.28178000e-01 1.06070000e+01 3.81527000e+01	N
atom  6.44175000e-01 1.22493000e+01 3.87404000e+01	Si
atom  -3.02306000e-01 1.22342000e+01 3.60686000e+01	N
atom  1.60470000e+00 1.32574000e+01 3.76951000e+01	N
atom  -4.02854000e-01 1.33618000e+01 3.95850000e+01	N
atom  3.40908000e-01 2.00351000e+01 3.71133000e+01	Si
atom  4.77433000e-01 1.69840000e+01 3.74614000e+01	Si
atom  1.02380000e+00 1.84009000e+01 3.67412000e+01	N
atom  6.68520000e-01 2.52054000e+01 2.37585000e+00	N
atom  -1.92736000e-01 2.05733000e+01 9.40201000e-01	N
atom  1.98732000e+00 2.27308000e+01 2.53171000e+00	N
atom  1.12901000e+00 2.84537000e+01 3.59775000e+00	Si
atom  1.54406000e+00 2.91520000e+01 2.05364000e+00	N
atom  8.93485000e-02 2.58866000e+01 3.86404000e+00	Si
atom  1.13953000e+00 2.72201000e+01 2.71799000e-02	N
atom  1.13633000e+00 2.97222000e+01 4.77896000e+00	N
atom  -3.77906000e-01 2.76107000e+01 3.86895000e+00	N
atom  -5.52017000e-02 2.14705000e+01 6.41580000e+00	Si
atom  7.48031000e-01 2.21945000e+01 7.75326000e+00	N
atom  -1.43109000e-01 2.32865000e+01 8.75122000e+00	Si
atom  -2.19827000e-01 2.26646000e+01 5.12934000e+00	N
atom  1.04533000e-01 2.48077000e+01 9.72652000e+00	N
atom  1.88210000e+00 2.48554000e+01 9.67997000e+00	Si
atom  9.48123000e-01 2.52181000e+01 5.22055000e+00	N
atom  1.68777000e+00 2.75821000e+01 6.51274000e+00	N
atom  6.43801000e-02 3.00836000e+01 9.76328000e+00	N
atom  8.11851000e-01 2.90082000e+01 6.30151000e+00	Si
atom  1.85578000e+00 2.78705000e+01 9.55805000e+00	N
atom  1.03700000e+00 2.12608000e+01 1.15525000e+01	N
atom  8.78134000e-01 2.27913000e+01 1.39930000e+01	N
atom  9.71573000e-01 2.11614000e+01 1.33478000e+01	Si
atom  -1.93792000e-01 2.41307000e+01 1.34988000e+01	Si
atom  -5.71336000e-01 2.09298000e+01 1.08453000e+01	Si
atom  2.91094000e-01 2.55339000e+01 1.25540000e+01	N
atom  7.04545000e-01 2.71973000e+01 1.27954000e+01	Si
atom  2.87435000e-02 2.75098000e+01 1.43839000e+01	N
atom  -1.16875000e-01 2.80811000e+01 1.16002000e+01	N
atom  1.58472000e-01 2.82778000e+01 9.82418000e+00	Si
atom  1.35251000e+00 2.35772000e+01 1.70340000e+01	N
atom  1.24893000e+00 2.16582000e+01 1.93824000e+01	N
atom  2.51797000e-01 2.29886000e+01 1.57731000e+01	Si
atom  -4.00257000e-01 2.18034000e+01 1.85753000e+01	Si
atom  -2.17675000e-01 2.63436000e+01 1.82002000e+01	Si
atom  1.04832000e+00 2.65121000e+01 1.69244000e+01	N
atom  1.01686000e+00 2.91386000e+01 1.64704000e+01	N
atom  -1.40701000e-02 2.54284000e+01 1.96198000e+01	N
atom  1.26725000e+00 2.76418000e+01 1.56509000e+01	Si
atom  6.98444000e-01 2.39095000e+01 2.15255000e+01	N
atom  4.42309000e-01 2.13005000e+01 2.19691000e+01	N
atom  1.50743000e-01 2.22464000e+01 2.33780000e+01	Si
atom  1.27242000e+00 2.50207000e+01 2.42645000e+01	N
atom  1.48426000e+00 2.24899000e+01 2.09597000e+01	Si
atom  1.70043000e+00 2.24546000e+01 2.40525000e+01	N
atom  1.57253000e+00 2.52441000e+01 2.05470000e+01	Si
atom  -5.14235000e-01 2.50574000e+01 2.43013000e+01	Si
atom  1.41994000e+00 2.90510000e+01 2.10561000e+01	N
atom  1.10965000e+00 2.85633000e+01 2.37406000e+01	N
atom  2.51195000e-01 2.75239000e+01 2.26465000e+01	Si
atom  1.43519000e+00 2.64677000e+01 2.19601000e+01	N
atom  1.21262000e+00 2.98642000e+01 2.24689000e+01	Si
atom  -4.45465000e-02 2.40414000e+01 2.71164000e+01	Si
atom  1.64106000e+00 2.40764000e+01 2.67029000e+01	N
atom  1.33649000e+00 2.05361000e+01 2.60649000e+01	N
atom  -2.98157000e-01 2.10947000e+01 2.62048000e+01	Si
atom  -3.39876000e-01 2.47979000e+01 2.86429000e+01	N
atom  -4.52328000e-01 2.76019000e+01 2.87986000e+01	N
atom  1.71508000e+00 2.86206000e+01 2.66198000e+01	N
atom  5.28543000e-01 2.62703000e+01 2.90198000e+01	Si
atom  1.97647000e-01 2.90615000e+01 2.95752000e+01	Si
atom  5.27906000e-01 2.98471000e+01 2.68028000e+01	Si
atom  1.80835000e+00 2.86259000e+01 2.98018000e+01	N
atom  9.34422000e-01 2.45432000e+01 3.27326000e+01	N
atom  7.49093000e-01 2.33321000e+01 3.39312000e+01	Si
atom  7.59162000e-01 2.30447000e+01 3.05574000e+01	N
atom  1.59151000e+00 2.18693000e+01 3.33209000e+01	N
atom  9.12110000e-01 2.13123000e+01 3.01860000e+01	Si
atom  1.33504000e+00 2.04618000e+01 3.42884000e+01	Si
atom  2.00816000e+00 2.44824000e+01 3.12810000e+01	Si
atom  9.46273000e-01 2.57335000e+01 3.06500000e+01	N
atom  -3.52887000e-02 2.58471000e+01 3.20560000e+01	Si
atom  1.80697000e+00 2.94346000e+01 3.25819000e+01	N
atom  1.26803000e+00 2.06668000e+01 3.84859000e+01	N
atom  1.60238000e+00 2.37135000e+01 3.53633000e+01	N
atom  1.14917000e+00 2.10483000e+01 3.59193000e+01	N
atom  -4.24937000e-01 2.46985000e+01 3.96891000e+01	N
atom  1.85615000e+00 3.01865000e+01 3.86015000e+01	Si
atom  -1.42992000e-02 2.81786000e+01 3.90919000e+01	Si
atom  1.29340000e+00 2.65343000e+01 3.52019000e+01	N
atom  1.48279000e+00 2.94316000e+01 3.63341000e+01	Si
atom  1.05116000e+00 2.55402000e+01 3.92641000e+01	Si
atom  1.89473000e+00 2.52883000e+01 3.78057000e+01	N
atom  8.07439000e-01 2.89564000e+01 3.78655000e+01	N
atom  8.56204000e-01 3.42382000e+01 3.18404000e+00	N
atom  1.37554000e+00 3.41433000e+01 4.94401000e-01	N
atom  5.38752000e-02 3.20493000e+01 1.65760000e+00	N
atom  4.76308000e-01 3.26126000e+01 8.03446000e-02	Si
atom  7.28550000e-01 3.04409000e+01 1.25086000e+00	Si
atom  1.67930000e+00 3.14036000e+01 -1.39506000e-01	N
atom  2.98273000e-01 3.55017000e+01 4.23994000e+00	Si
atom  6.55022000e-01 3.95636000e+01 4.18444000e+00	N
atom  1.77483000e-01 3.83482000e+01 4.71864000e-01	Si
atom  9.70959000e-01 3.80985000e+01 3.28378000e+00	Si
atom  1.35829000e+00 3.85325000e+01 1.68331000e+00	N
atom  -1.27563000e-01 3.68470000e+01 3.25184000e+00	N
atom  -3.64942000e-01 3.65776000e+01 3.73973000e-01	N
atom  1.75426000e+00 3.11802000e+01 5.56719000e+00	Si
atom  1.57353000e+00 3.33052000e+01 7.40766000e+00	Si
atom  3.91518000e-01 3.43471000e+01 7.96426000e+00	N
atom  8.39396000e-01 3.26993000e+01 5.91417000e+00	N
atom  1.49937000e+00 3.05563000e+01 8.88708000e+00	Si
atom  1.87615000e+00 3.23132000e+01 8.91793000e+00	N
atom  1.59760000e+00 3.03660000e+01 7.15800000e+00	N
atom  3.15847000e-01 3.93880000e+01 5.88829000e+00	Si
atom  9.78901000e-02 3.90702000e+01 9.31405000e+00	N
atom  5.91279000e-01 3.52690000e+01 9.39913000e+00	Si
atom  -1.71687000e-01 3.54114000e+01 6.74177000e+00	Si
atom  1.45526000e+00 3.85093000e+01 6.89316000e+00	N
atom  1.14880000e+00 3.59173000e+01 5.72487000e+00	N
atom  1.57115000e+00 3.66578000e+01 8.91423000e+00	N
atom  5.07993000e-01 3.78092000e+01 8.20835000e+00	Si
atom  1.33427000e+00 3.28954000e+01 1.05760000e+01	Si
atom  5.18596000e-01 3.23375000e+01 1.40397000e+01	N
atom  1.66570000e+00 3.46000000e+01 1.06128000e+01	N
atom  -4.09823000e-01 3.27916000e+01 1.08800000e+01	N
atom  2.37628000e-01 3.83966000e+01 1.41327000e+01	N
atom  1.64179000e-01 3.68358000e+01 1.32750000e+01	Si
atom  4.27753000e-01 3.92144000e+01 1.10834000e+01	Si
atom  1.52786000e-01 3.76463000e+01 1.16532000e+01	N
atom  1.68692000e+00 3.59464000e+01 1.32363000e+01	N
atom  1.79330000e+00 3.86183000e+01 1.47745000e+01	Si
atom  1.38026000e+00 3.46270000e+01 1.76971000e+01	Si
atom  3.76092000e-01 3.34514000e+01 1.84882000e+01	N
atom  9.60517000e-01 3.17871000e+01 1.81356000e+01	Si
atom  1.65300000e+00 3.30110000e+01 1.52854000e+01	Si
atom  1.71477000e+00 3.17990000e+01 1.66122000e+01	N
atom  1.81626000e+00 3.45140000e+01 1.59742000e+01	N
atom  1.81269000e+00 4.00952000e+01 1.86841000e+01	Si
atom  2.04297000e-01 4.03307000e+01 1.79422000e+01	N
atom  1.34805000e-01 3.68775000e+01 1.63242000e+01	Si
atom  -7.08508000e-02 3.66611000e+01 1.93589000e+01	Si
atom  5.15343000e-01 3.61209000e+01 1.77925000e+01	N
atom  -3.12157000e-01 3.58175000e+01 1.49652000e+01	N
atom  9.83641000e-01 3.43958000e+01 2.37196000e+01	Si
atom  -1.65386000e-01 3.30953000e+01 2.39772000e+01	N
atom  -3.22963000e-01 3.06366000e+01 2.23735000e+01	N
atom  -5.92400000e-01 3.32717000e+01 2.13396000e+01	N
atom  1.71021000e+00 3.56415000e+01 2.47212000e+01	N
atom  2.13449000e-01 3.54727000e+01 2.25921000e+01	N
atom  9.04383000e-01 3.71671000e+01 2.07352000e+01	N
atom  2.07452000e-01 3.71969000e+01 2.24187000e+01	Si
atom  1.17373000e+00 3.97114000e+01 2.34303000e+01	Si
atom  1.63975000e+00 3.80512000e+01 2.29519000e+01	N
atom  -1.94230000e-01 4.02232000e+01 2.25371000e+01	N
atom  9.65841000e-01 3.14166000e+01 2.62442000e+01	N
atom  1.54901000e+00 3.26953000e+01 2.85919000e+01	N
atom  -7.11440000e-02 3.21379000e+01 2.84842000e+01	Si
atom  2.04456000e-01 3.03794000e+01 2.84350000e+01	N
atom  5.11314000e-01 3.60853000e+01 2.88317000e+01	Si
atom  1.79628000e+00 3.88967000e+01 2.89657000e+01	Si
atom  4.66590000e-01 3.78113000e+01 2.88463000e+01	N
atom  9.65479000e-01 3.55085000e+01 2.73528000e+01	N
atom  6.83724000e-01 3.94352000e+01 2.51003000e+01	N
atom  7.12256000e-01 3.42032000e+01 3.30603000e+01	N
atom  1.36141000e-01 3.16265000e+01 3.24954000e+01	N
atom  1.46741000e+00 3.28180000e+01 3.25773000e+01	Si
atom  7.41702000e-01 3.49143000e+01 3.00951000e+01	N
atom  9.86467000e-01 3.05262000e+01 3.35307000e+01	Si
atom  1.01895000e+00 3.47868000e+01 3.46624000e+01	Si
atom  2.16395000e-01 3.51276000e+01 3.16952000e+01	Si
atom  1.32382000e+00 3.87613000e+01 3.30092000e+01	N
atom  5.08737000e-01 3.68010000e+01 3.18404000e+01	N
atom  -3.15545000e-01 3.81741000e+01 3.25846000e+01	Si
atom  8.06647000e-01 3.34512000e+01 3.58285000e+01	N
atom  -3.11274000e-01 3.45272000e+01 3.66392000e+01	Si
atom  1.42702000e+00 3.18565000e+01 3.55787000e+01	Si
atom  4.13921000e-01 3.03480000e+01 3.52268000e+01	N
atom  7.66638000e-01 3.84552000e+01 3.88211000e+01	N
atom  2.09626000e-02 3.53725000e+01 3.80916000e+01	N
atom  3.47519000e-01 3.87346000e+01 3.61626000e+01	N
atom  9.61521000e-01 3.56255000e+01 3.95810000e+01	Si
atom  2.94689000e+00 7.77819000e-01 1.91497000e+00	N
atom  2.09562000e+00 1.98426000e+00 9.23063000e-01	Si
atom  4.01981000e+00 2.00688000e+00 4.65087000e+00	N
atom  4.15089000e+00 1.20752000e+00 3.10172000e+00	Si
atom  4.26741000e+00 4.40013000e+00 3.12467000e+00	N
atom  4.26735000e+00 4.93474000e+00 5.56476000e-01	N
atom  3.72224000e+00 5.93359000e+00 3.68909000e+00	Si
atom  2.82352000e+00 1.01152000e+01 3.57953000e+00	Si
atom  2.04840000e+00 6.05651000e+00 3.34853000e+00	N
atom  1.98226000e+00 8.75321000e+00 2.97154000e+00	N
atom  3.46077000e+00 7.41170000e+00 -1.19532000e-01	N
atom  3.43637000e+00 6.44746000e-01 6.51059000e+00	N
atom  3.24323000e+00 2.32518000e+00 6.28700000e+00	Si
atom  3.69351000e+00 3.39769000e+00 7.62612000e+00	N
atom  2.08047000e+00 4.17914000e+00 7.53155000e+00	Si
atom  4.04540000e+00 9.58395000e+00 7.98903000e+00	Si
atom  3.17859000e+00 7.00819000e+00 6.32477000e+00	Si
atom  2.10548000e+00 5.82813000e+00 6.98794000e+00	N
atom  2.57203000e+00 1.00649000e+01 7.23122000e+00	N
atom  4.17685000e+00 7.90896000e+00 7.38614000e+00	N
atom  3.86935000e+00 9.53910000e+00 9.70602000e+00	N
atom  1.93032000e+00 7.82461000e+00 5.47597000e+00	N
atom  3.61266000e+00 3.62931000e+00 1.14029000e+01	Si
atom  2.29029000e+00 2.75134000e+00 1.07114000e+01	N
atom  2.61163000e+00 1.13677000e+00 1.02437000e+01	Si
atom  2.79434000e+00 4.94872000e+00 1.21017000e+01	N
atom  4.11676000e+00 1.05346000e+00 1.46620000e+01	N
atom  3.22337000e+00 7.56758000e+00 1.15814000e+01	N
atom  3.20083000e+00 6.54006000e+00 1.42036000e+01	N
atom  3.72970000e+00 6.29046000e+00 1.25756000e+01	Si
atom  2.92205000e+00 9.33790000e+00 1.46274000e+01	N
atom  2.89638000e+00 5.01867000e+00 1.50371000e+01	Si
atom  2.88157000e+00 1.19439000e+00 1.79700000e+01	N
atom  2.66506000e+00 3.58424000e+00 1.91063000e+01	N
atom  3.70427000e+00 2.24950000e+00 1.91885000e+01	Si
atom  3.43301000e+00 6.38668000e-01 1.63151000e+01	Si
atom  2.43690000e+00 5.03620000e+00 1.67513000e+01	N
atom  2.32638000e+00 9.85865000e+00 1.89197000e+01	N
atom  3.92568000e+00 6.06818000e+00 1.90962000e+01	N
atom  3.08123000e+00 7.80514000e+00 1.68266000e+01	N
atom  3.82388000e+00 7.92088000e+00 1.51373000e+01	Si
atom  2.24185000e+00 9.28639000e+00 1.73114000e+01	Si
atom  3.54560000e+00 6.17797000e+00 1.73266000e+01	Si
atom  2.37863000e+00 9.88587000e-01 2.31282000e+01	N
atom  3.88993000e+00 1.73247000e+00 2.08992000e+01	N
atom  3.22247000e+00 1.95407000e+00 2.43873000e+01	Si
atom  3.25961000e+00 4.80421000e+00 2.01100000e+01	Si
atom  2.85584000e+00 5.32949000e-01 2.14672000e+01	Si
atom  3.20935000e+00 6.01285000e+00 2.31016000e+01	N
atom  3.72083000e+00 8.53520000e+00 2.35263000e+01	N
atom  3.69841000e+00 9.35378000e+00 2.20563000e+01	Si
atom  3.52783000e+00 8.20394000e+00 2.07773000e+01	N
atom  2.99118000e+00 7.21116000e+00 2.43886000e+01	Si
atom  2.00629000e+00 9.89901000e+00 2.17543000e+01	N
atom  2.04109000e+00 8.94056000e+00 2.03366000e+01	Si
atom  3.53799000e+00 7.71637000e-01 2.57598000e+01	N
atom  3.16387000e+00 4.79423000e+00 2.92501000e+01	Si
atom  2.61036000e+00 3.13720000e+00 2.55278000e+01	N
atom  3.57128000e+00 3.53929000e+00 2.69787000e+01	Si
atom  3.44953000e+00 2.99399000e+00 2.86678000e+01	N
atom  3.44114000e+00 5.16629000e+00 2.75699000e+01	N
atom  2.40399000e+00 1.88997000e+00 2.97197000e+01	Si
atom  3.60588000e+00 6.91028000e+00 2.72471000e+01	Si
atom  2.01504000e+00 7.55001000e+00 2.78630000e+01	N
atom  2.76251000e+00 9.26984000e+00 2.58219000e+01	N
atom  3.82904000e+00 1.14194000e+00 3.03434000e+01	N
atom  2.73401000e+00 5.21366000e+00 3.36349000e+01	Si
atom  4.08059000e+00 4.32195000e+00 3.30173000e+01	N
atom  3.75171000e+00 7.70748000e+00 3.30434000e+01	Si
atom  3.27960000e+00 8.91889000e+00 3.20136000e+01	N
atom  2.23818000e+00 6.79310000e+00 3.30776000e+01	N
atom  3.75067000e+00 8.37052000e+00 3.47211000e+01	N
atom  2.37683000e+00 4.77950000e+00 3.84629000e+01	N
atom  3.32102000e+00 9.81992000e-01 3.84881000e+01	Si
atom  3.11335000e+00 1.68356000e+00 3.59450000e+01	Si
atom  2.65629000e+00 3.27224000e+00 3.63194000e+01	N
atom  3.69242000e+00 3.96788000e+00 3.91892000e+01	Si
atom  3.90356000e+00 4.58245000e+00 3.64468000e+01	Si
atom  3.31814000e+00 2.31491000e+00 3.95291000e+01	N
atom  1.95208000e+00 8.00594000e-01 3.74221000e+01	N
atom  4.02120000e+00 8.40324000e+00 3.83279000e+01	Si
atom  3.17828000e+00 5.60202000e+00 3.52541000e+01	N
atom  2.26664000e+00 6.36065000e+00 3.91755000e+01	Si
atom  2.84181000e+00 7.22379000e+00 3.56994000e+01	Si
atom  2.82296000e+00 9.63307000e+00 3.84069000e+01	N
atom  3.45941000e+00 7.11669000e+00 3.72887000e+01	N
atom  3.00781000e+00 1.16027000e+01 2.71924000e+00	N
atom  2.51587000e+00 1.50006000e+01 2.43234000e+00	Si
atom  3.98971000e+00 1.41546000e+01 2.46081000e+00	N
atom  3.06608000e+00 1.82330000e+01 8.84000000e-01	Si
atom  2.76743000e+00 1.63943000e+01 1.34999000e+00	N
atom  2.27446000e+00 1.55978000e+01 4.12487000e+00	N
atom  3.39830000e+00 1.67020000e+01 4.80879000e+00	Si
atom  2.90091000e+00 2.01334000e+01 3.34379000e-01	N
atom  3.69395000e+00 1.23983000e+01 8.94245000e+00	N
atom  2.72461000e+00 1.14796000e+01 6.20377000e+00	Si
atom  3.28020000e+00 1.36313000e+01 7.81145000e+00	Si
atom  2.02713000e+00 1.29146000e+01 6.84356000e+00	N
atom  3.88973000e+00 1.65579000e+01 7.77086000e+00	Si
atom  3.01225000e+00 1.83582000e+01 5.11088000e+00	N
atom  2.84736000e+00 1.52763000e+01 8.36267000e+00	N
atom  3.68294000e+00 1.82538000e+01 7.72206000e+00	N
atom  4.09016000e+00 1.96774000e+01 8.56592000e+00	Si
atom  3.54397000e+00 1.45818000e+01 1.15779000e+01	Si
atom  3.57792000e+00 1.36942000e+01 1.30984000e+01	N
atom  2.21241000e+00 1.42446000e+01 1.05218000e+01	N
atom  3.36342000e+00 1.10928000e+01 1.01326000e+01	Si
atom  2.04027000e+00 1.33831000e+01 1.39777000e+01	Si
atom  1.96519000e+00 1.16925000e+01 1.45058000e+01	N
atom  1.91682000e+00 1.72448000e+01 1.17003000e+01	Si
atom  2.53924000e+00 1.88548000e+01 1.14389000e+01	N
atom  3.41331000e+00 1.62681000e+01 1.20755000e+01	N
atom  3.67617000e+00 1.98301000e+01 1.24650000e+01	Si
atom  3.54546000e+00 1.65490000e+01 1.47190000e+01	N
atom  3.55071000e+00 1.10684000e+01 1.51072000e+01	Si
atom  3.49597000e+00 1.12234000e+01 1.83353000e+01	Si
atom  3.06898000e+00 1.28938000e+01 1.82083000e+01	N
atom  3.91615000e+00 1.28077000e+01 1.55908000e+01	N
atom  3.32465000e+00 1.05012000e+01 1.67744000e+01	N
atom  4.01987000e+00 1.52727000e+01 1.69901000e+01	N
atom  3.85185000e+00 1.58351000e+01 1.97357000e+01	N
atom  2.36241000e+00 1.88118000e+01 1.69527000e+01	Si
atom  3.37246000e+00 2.00952000e+01 1.64502000e+01	N
atom  3.12027000e+00 1.61148000e+01 1.82428000e+01	Si
atom  2.05465000e+00 2.00569000e+01 1.95622000e+01	Si
atom  3.54097000e+00 1.76470000e+01 1.75093000e+01	N
atom  3.34306000e+00 1.48439000e+01 2.31154000e+01	Si
atom  3.77545000e+00 1.19837000e+01 2.44661000e+01	Si
atom  2.32563000e+00 1.14846000e+01 2.38239000e+01	N
atom  2.08259000e+00 1.43170000e+01 2.21107000e+01	N
atom  3.43284000e+00 1.91415000e+01 2.21999000e+01	Si
atom  3.94547000e+00 1.76939000e+01 2.29382000e+01	N
atom  2.68560000e+00 2.00444000e+01 2.35025000e+01	N
atom  3.40763000e+00 1.73612000e+01 2.45766000e+01	Si
atom  3.06163000e+00 1.56150000e+01 2.46556000e+01	N
atom  2.14792000e+00 1.92705000e+01 2.11188000e+01	N
atom  4.15613000e+00 1.33912000e+01 2.71773000e+01	Si
atom  2.02349000e+00 1.06918000e+01 2.79102000e+01	N
atom  3.35084000e+00 1.05310000e+01 2.68444000e+01	Si
atom  2.76495000e+00 1.44435000e+01 2.71462000e+01	N
atom  3.60038000e+00 1.21027000e+01 2.62101000e+01	N
atom  3.78229000e+00 1.57867000e+01 2.64162000e+01	Si
atom  3.95805000e+00 1.87764000e+01 2.95765000e+01	N
atom  3.07613000e+00 1.68817000e+01 2.77373000e+01	N
atom  2.15560000e+00 1.81459000e+01 2.54268000e+01	N
atom  3.25865000e+00 1.70087000e+01 2.95166000e+01	Si
atom  2.71301000e+00 1.17720000e+01 3.30831000e+01	N
atom  2.69375000e+00 1.42010000e+01 3.10288000e+01	Si
atom  3.68587000e+00 1.19418000e+01 3.44652000e+01	Si
atom  3.22632000e+00 1.06717000e+01 3.18805000e+01	Si
atom  2.68362000e+00 1.26174000e+01 2.99638000e+01	N
atom  1.98984000e+00 1.77126000e+01 3.06936000e+01	N
atom  2.75103000e+00 1.55328000e+01 3.22992000e+01	N
atom  3.04434000e+00 1.89850000e+01 3.09997000e+01	Si
atom  3.93177000e+00 1.82871000e+01 3.23934000e+01	N
atom  2.55237000e+00 1.92481000e+01 3.45615000e+01	N
atom  3.97815000e+00 1.95324000e+01 3.36700000e+01	Si
atom  4.20120000e+00 1.65651000e+01 3.21946000e+01	Si
atom  2.24265000e+00 1.54126000e+01 2.98189000e+01	N
atom  4.16422000e+00 1.20416000e+01 3.83418000e+01	N
atom  2.73567000e+00 1.16386000e+01 3.59282000e+01	N
atom  3.24057000e+00 1.35085000e+01 3.81741000e+01	Si
atom  3.87912000e+00 1.44189000e+01 3.68617000e+01	N
atom  3.48044000e+00 1.08118000e+01 3.73369000e+01	Si
atom  3.44636000e+00 1.45203000e+01 3.95515000e+01	N
atom  3.83104000e+00 1.74846000e+01 3.66327000e+01	N
atom  3.07421000e+00 1.59003000e+01 3.66806000e+01	Si
atom  2.21094000e+00 1.63234000e+01 3.52239000e+01	N
atom  2.42786000e+00 1.79853000e+01 3.56669000e+01	Si
atom  2.77235000e+00 1.61329000e+01 3.95729000e+01	Si
atom  3.89706000e+00 1.99441000e+01 3.76480000e+01	N
atom  3.90566000e+00 1.76061000e+01 3.93465000e+01	N
atom  1.90627000e+00 1.61547000e+01 3.80409000e+01	N
atom  2.72962000e+00 2.12968000e+01 3.10465000e+00	Si
atom  2.12105000e+00 2.42691000e+01 1.95006000e+00	Si
atom  2.13077000e+00 2.43497000e+01 1.98699000e-01	N
atom  3.66862000e+00 2.50116000e+01 2.44343000e+00	N
atom  4.37013000e+00 2.14295000e+01 2.42470000e+00	N
atom  3.59344000e+00 2.66909000e+01 3.07324000e+00	Si
atom  3.75182000e+00 2.75721000e+01 1.63222000e+00	N
atom  2.42808000e+00 2.81687000e+01 7.79465000e-01	Si
atom  2.24259000e+00 2.71378000e+01 3.98688000e+00	N
atom  2.89469000e+00 2.10941000e+01 4.81426000e+00	N
atom  3.21665000e+00 2.28055000e+01 7.03845000e+00	N
atom  3.49879000e+00 2.45520000e+01 7.20116000e+00	Si
atom  2.37736000e+00 2.20270000e+01 8.29755000e+00	Si
atom  3.96062000e+00 2.16860000e+01 5.95151000e+00	Si
atom  2.58100000e+00 2.05258000e+01 9.03557000e+00	N
atom  2.14827000e+00 2.30912000e+01 9.76539000e+00	N
atom  4.28498000e+00 2.89680000e+01 9.19376000e+00	Si
atom  3.75188000e+00 2.53003000e+01 5.69633000e+00	N
atom  2.49763000e+00 2.72693000e+01 8.03927000e+00	Si
atom  2.34770000e+00 2.54689000e+01 8.08668000e+00	N
atom  4.06625000e+00 2.79198000e+01 7.85660000e+00	N
atom  2.26197000e+00 2.63457000e+01 5.54065000e+00	Si
atom  2.84236000e+00 2.35051000e+01 1.23418000e+01	N
atom  2.40892000e+00 2.35862000e+01 1.40042000e+01	Si
atom  2.57157000e+00 2.22710000e+01 1.12763000e+01	Si
atom  3.91857000e+00 2.46630000e+01 1.17084000e+01	Si
atom  2.61510000e+00 2.05497000e+01 1.36951000e+01	N
atom  3.95995000e+00 2.11617000e+01 1.13339000e+01	N
atom  2.30124000e+00 2.51350000e+01 1.48121000e+01	N
atom  2.88907000e+00 2.56997000e+01 1.07931000e+01	N
atom  2.94330000e+00 2.74101000e+01 1.09599000e+01	Si
atom  3.16589000e+00 2.87929000e+01 1.37037000e+01	Si
atom  2.36466000e+00 2.77088000e+01 1.25762000e+01	N
atom  3.56657000e+00 2.63077000e+01 1.44091000e+01	Si
atom  2.34915000e+00 3.02801000e+01 1.41776000e+01	N
atom  3.58906000e+00 2.10375000e+01 1.50496000e+01	Si
atom  3.46461000e+00 2.27880000e+01 1.50874000e+01	N
atom  2.14875000e+00 2.28547000e+01 1.83944000e+01	Si