lattice_vector  3.99195020e+01 0.00000000e+00 0.00000000e+00
lattice_vector  2.44436452e-15 3.99195020e+01 0.00000000e+00
lattice_vector  2.44436452e-15 2.44436452e-15 3.99195020e+01
atom  1.65027000e+00 5.30173000e+00 3.35470000e+00	N
atom  2.73960000e-01 5.66670000e+00 4.37121000e+00	Si
atom  6.89455000e-01 5.89155000e+00 7.72849000e-01	N
atom  1.46340000e-01 7.41599000e+00 4.60693000e+00	N
atom  1.52437000e+00 1.00587000e+01 4.43162000e+00	N
atom  -2.48983000e-01 9.28696000e-01 5.73717000e+00	Si
atom  1.67472000e+00 4.32298000e+00 6.56194000e+00	Si
atom  1.23236000e+00 1.81078000e+00 5.91236000e+00	N
atom  1.68358000e-01 4.56337000e+00 5.67244000e+00	N
atom  1.12017000e+00 1.56538000e+00 7.79698000e+00	Si
atom  1.55398000e+00 3.39413000e+00 7.98613000e+00	N
atom  1.15589000e+00 3.31297000e+00 9.68168000e+00	Si
atom  2.59893000e-01 1.82339000e+00 9.45229000e+00	N
atom  1.89397000e+00 7.07036000e+00 9.36866000e+00	N
atom  1.20625000e+00 6.94474000e+00 7.77614000e+00	Si
atom  1.42622000e+00 8.44012000e+00 5.15206000e+00	Si
atom  1.18086000e+00 8.45280000e+00 6.88794000e+00	N
atom  1.45723000e+00 9.82641000e+00 9.40691000e+00	N
atom  -1.90182000e-02 5.86812000e+00 8.35908000e+00	N
atom  1.02589000e+00 2.57565000e+00 1.28427000e+01	N
atom  7.04979000e-01 4.50777000e+00 1.08511000e+01	N
atom  9.09298000e-01 4.30113000e+00 1.25627000e+01	Si
atom  1.09574000e+00 2.08860000e+00 1.45285000e+01	Si
atom  -1.24184000e-02 5.23689000e-01 1.05877000e+01	Si
atom  -4.46626000e-01 4.76794000e+00 1.36927000e+01	N
atom  1.46171000e-01 8.38456000e+00 1.20113000e+01	Si
atom  6.96296000e-01 6.02233000e+00 9.99850000e+00	Si
atom  -2.19672000e-01 7.07533000e+00 1.09868000e+01	N
atom  1.79986000e+00 9.07947000e+00 1.46901000e+01	N
atom  1.87047000e+00 8.42332000e+00 1.20053000e+01	N
atom  -2.78372000e-01 9.90082000e-01 1.48840000e+01	N
atom  9.10935000e-02 4.77562000e+00 1.52935000e+01	Si
atom  5.35657000e-02 2.05641000e+00 1.92912000e+01	Si
atom  1.14525000e+00 3.45690000e+00 1.56323000e+01	N
atom  1.68312000e+00 2.32224000e+00 1.96819000e+01	N
atom  1.11223000e+00 6.67159000e+00 1.69769000e+01	Si
atom  7.66673000e-02 8.98577000e+00 1.50368000e+01	Si
atom  1.83425000e+00 9.42956000e+00 1.93499000e+01	N
atom  5.39929000e-01 8.85667000e+00 1.80324000e+01	Si
atom  -5.08133000e-02 8.00311000e+00 1.65011000e+01	N
atom  1.41808000e+00 6.01967000e+00 1.53439000e+01	N
atom  4.42922000e-01 7.20384000e+00 1.88100000e+01	N
atom  1.85578000e+00 5.28823000e+00 1.78033000e+01	N
atom  1.34451000e+00 3.49685000e+00 2.20780000e+01	N
atom  -9.60190000e-02 1.60679000e+00 2.35867000e+01	N
atom  -1.44788000e-01 2.60075000e+00 2.22002000e+01	Si
atom  1.36219000e+00 5.21705000e+00 2.22907000e+01	Si
atom  -5.16696000e-01 1.57769000e+00 2.08699000e+01	N
atom  8.07010000e-01 5.57606000e+00 2.07144000e+01	N
atom  4.16909000e-02 7.61411000e+00 2.29684000e+01	Si
atom  4.58709000e-01 5.94925000e+00 2.35792000e+01	N
atom  1.32239000e+00 8.59174000e+00 2.24050000e+01	N
atom  1.47190000e+00 9.62463000e+00 2.10636000e+01	Si
atom  1.38342000e+00 1.75528000e+00 2.76769000e+01	Si
atom  -2.67633000e-01 1.56516000e+00 2.74502000e+01	N
atom  1.95361000e+00 4.87162000e+00 2.73944000e+01	N
atom  1.39660000e+00 8.46462000e+00 2.87979000e+01	Si
atom  2.04049000e-01 9.59300000e+00 2.83058000e+01	N
atom  1.08953000e+00 6.31311000e+00 2.72802000e+01	Si
atom  4.70716000e-01 6.94534000e+00 2.88355000e+01	N
atom  1.76223000e+00 9.23429000e+00 2.50769000e+01	N
atom  1.15928000e+00 3.87293000e+00 3.17552000e+01	Si
atom  1.35261000e+00 5.02620000e+00 3.03871000e+01	N
atom  5.92266000e-01 6.22242000e-01 3.04938000e+01	N
atom  1.18952000e+00 4.93489000e+00 3.30425000e+01	N
atom  3.94997000e-01 7.16470000e+00 3.44877000e+01	N
atom  1.19713000e+00 9.37248000e+00 3.31333000e+01	N
atom  6.03734000e-01 8.87341000e+00 3.14801000e+01	Si
atom  5.64146000e-02 6.21255000e+00 3.03287000e+01	Si
atom  -4.56268000e-02 6.20251000e+00 3.31077000e+01	Si
atom  1.25752000e-01 7.22833000e+00 3.17011000e+01	N
atom  -3.70925000e-01 5.17785000e+00 3.81300000e+01	N
atom  1.32060000e+00 4.40491000e+00 3.57522000e+01	N
atom  7.88551000e-01 2.93980000e+00 3.90018000e+01	Si
atom  1.23250000e-01 1.05525000e+00 3.73870000e+01	Si
atom  7.77196000e-01 1.08312000e+00 3.56140000e+01	N
atom  8.48748000e-01 1.16661000e+00 3.90753000e+01	N
atom  4.24152000e-01 2.78922000e+00 3.73124000e+01	N
atom  1.73959000e+00 2.61483000e+00 3.59964000e+01	Si
atom  -2.55070000e-01 4.21378000e+00 3.65715000e+01	Si
atom  8.97619000e-01 8.56064000e+00 3.80912000e+01	Si
atom  4.52144000e-01 9.04259000e+00 3.97495000e+01	N
atom  1.01792000e+00 5.73783000e+00 3.89641000e+01	Si
atom  1.00913000e+00 1.39094000e+01 2.08846000e+00	N
atom  1.76174000e-03 1.09339000e+01 4.64460000e+00	Si
atom  1.16571000e+00 1.25592000e+01 9.27139000e-01	Si
atom  1.37649000e+00 1.09620000e+01 1.70096000e+00	N
atom  6.13127000e-02 1.24911000e+01 3.87329000e+00	N
atom  1.67350000e+00 1.34183000e+01 3.92689000e+00	Si
atom  -5.11381000e-01 1.39213000e+01 2.86936000e+00	Si
atom  -5.39678000e-01 1.52607000e+01 3.95553000e+00	N
atom  5.00549000e-01 1.71597000e+01 4.52057000e-01	Si
atom  9.08961000e-01 1.67311000e+01 2.11725000e+00	N
atom  2.03225000e-01 1.68734000e+01 3.76781000e+00	Si
atom  1.36308000e+00 1.86322000e+01 9.54553000e-02	N
atom  1.30950000e-01 1.12294000e+01 6.34472000e+00	N
atom  1.21835000e+00 1.33380000e+01 8.01327000e+00	N
atom  1.61635000e+00 1.20764000e+01 6.74888000e+00	Si
atom  1.35264000e+00 1.46304000e+01 6.68257000e+00	Si
atom  -1.83940000e-01 1.34514000e+01 9.06709000e+00	Si
atom  -2.32395000e-01 1.51404000e+01 9.49117000e+00	N
atom  -2.70552000e-01 1.51912000e+01 6.60378000e+00	N
atom  2.61234000e-01 1.82515000e+01 6.66485000e+00	Si
atom  5.88817000e-01 1.97999000e+01 7.38545000e+00	N
atom  -3.43227000e-01 2.01433000e+01 8.81930000e+00	Si
atom  1.09786000e+00 1.64122000e+01 9.47591000e+00	Si
atom  3.11074000e-01 1.72340000e+01 8.08008000e+00	N
atom  9.30352000e-01 1.78066000e+01 5.06333000e+00	N
atom  1.07164000e+00 1.27729000e+01 1.33395000e+01	N
atom  2.98196000e-02 1.22424000e+01 1.04537000e+01	N
atom  1.14733000e+00 1.37530000e+01 1.48936000e+01	Si
atom  -2.65425000e-01 1.47797000e+01 1.48172000e+01	N
atom  -2.56908000e-01 1.26340000e+01 1.21379000e+01	Si
atom  3.95998000e-03 1.05376000e+01 9.95100000e+00	Si
atom  6.39877000e-01 2.01830000e+01 1.02420000e+01	N
atom  8.14744000e-01 1.66634000e+01 1.11598000e+01	N
atom  4.26965000e-01 1.98710000e+01 1.20321000e+01	Si
atom  1.45578000e+00 1.67419000e+01 1.40599000e+01	N
atom  -1.03360000e-01 1.65135000e+01 1.47605000e+01	Si
atom  1.77560000e+00 1.72543000e+01 1.24405000e+01	Si
atom  1.84572000e+00 1.89777000e+01 1.24059000e+01	N
atom  6.06256000e-01 1.20748000e+01 1.88745000e+01	N
atom  4.10825000e-02 1.14574000e+01 1.67201000e+01	Si
atom  8.93314000e-01 1.30075000e+01 1.64054000e+01	N
atom  4.90542000e-01 1.36096000e+01 1.80513000e+01	Si
atom  1.70755000e+00 1.47505000e+01 1.85854000e+01	N
atom  1.96912000e+00 1.10142000e+01 1.86057000e+01	Si
atom  1.30446000e+00 1.02469000e+01 1.70971000e+01	N
atom  1.75882000e+00 1.75010000e+01 1.88472000e+01	N
atom  1.51549000e+00 1.75304000e+01 1.70992000e+01	Si
atom  4.18757000e-02 1.72979000e+01 1.62850000e+01	N
atom  1.35832000e+00 1.60837000e+01 1.96625000e+01	Si
atom  4.80317000e-01 1.19443000e+01 2.23656000e+01	Si
atom  1.96050000e-01 1.07656000e+01 2.11756000e+01	N
atom  1.54285000e+00 1.48191000e+01 2.22882000e+01	Si
atom  1.58584000e+00 1.12087000e+01 2.35108000e+01	N
atom  1.59795000e+00 1.31356000e+01 2.19151000e+01	N
atom  -1.84108000e-01 1.50149000e+01 2.22822000e+01	N
atom  9.65976000e-01 1.71437000e+01 2.29694000e+01	N
atom  6.11082000e-01 1.84647000e+01 2.40549000e+01	Si
atom  5.53143000e-01 1.96468000e+01 2.27904000e+01	N
atom  1.32167000e+00 2.03048000e+01 1.99793000e+01	N
atom  -3.21336000e-01 1.64764000e+01 2.00796000e+01	N
atom  -3.19511000e-01 1.66578000e+01 2.18253000e+01	Si
atom  1.77203000e+00 2.02380000e+01 2.18003000e+01	Si
atom  -3.81654000e-01 1.46993000e+01 2.93379000e+01	N
atom  1.10802000e+00 1.36321000e+01 2.90920000e+01	Si
atom  2.88299000e-01 1.21122000e+01 2.88430000e+01	N
atom  1.73318000e-01 1.13148000e+01 2.59571000e+01	N
atom  7.25894000e-01 1.10316000e+01 2.75758000e+01	Si
atom  5.56618000e-01 1.51197000e+01 2.54250000e+01	N
atom  1.73248000e+00 1.09990000e+01 2.52546000e+01	Si
atom  1.73690000e+00 1.52580000e+01 2.66992000e+01	Si
atom  9.60112000e-01 1.64785000e+01 2.77702000e+01	N
atom  9.20508000e-01 1.07697000e+01 3.40483000e+01	Si
atom  6.05607000e-01 1.41250000e+01 3.45618000e+01	N
atom  1.70668000e+00 1.40469000e+01 3.07820000e+01	N
atom  -2.37884000e-01 1.17018000e+01 3.32189000e+01	N
atom  1.93023000e+00 1.50585000e+01 3.40918000e+01	Si
atom  1.60804000e+00 1.62026000e+01 3.27886000e+01	N
atom  8.68620000e-01 1.54675000e+01 3.13477000e+01	Si
atom  9.52794000e-01 1.69232000e+01 3.04652000e+01	N
atom  -6.99830000e-03 1.96928000e+01 3.34346000e+01	N
atom  1.30661000e+00 1.99893000e+01 3.46969000e+01	Si
atom  5.34950000e-01 2.02089000e+01 3.18746000e+01	Si
atom  1.86322000e-01 1.06516000e+01 3.57162000e+01	N
atom  -3.52038000e-02 1.50279000e+01 3.72990000e+01	N
atom  -2.42092000e-01 1.45963000e+01 3.90434000e+01	Si
atom  1.31369000e+00 1.25813000e+01 3.70466000e+01	N
atom  2.60666000e-01 1.36418000e+01 3.62545000e+01	Si
atom  -2.25235000e-01 1.29445000e+01 3.97688000e+01	N
atom  1.80457000e+00 1.10028000e+01 3.63868000e+01	Si
atom  2.15883000e-01 2.00268000e+01 3.80374000e+01	N
atom  5.11038000e-01 2.01113000e+01 3.97644000e+01	Si
atom  9.84227000e-01 1.56401000e+01 3.96329000e+01	N
atom  2.00437000e-01 1.87733000e+01 3.55053000e+01	N
atom  1.15448000e+00 2.42543000e+01 2.34966000e+00	Si
atom  1.13397000e+00 2.11480000e+01 3.76210000e+00	Si
atom  1.43989000e+00 2.25691000e+01 2.80700000e+00	N
atom  1.01211000e+00 2.18207000e+01 3.57725000e-02	N
atom  -2.95089000e-01 2.45431000e+01 1.44121000e+00	N
atom  3.38646000e-01 2.70757000e+01 8.06323000e-01	N
atom  6.57501000e-01 2.71254000e+01 2.49566000e+00	Si
atom  1.26045000e+00 2.88224000e+01 2.66159000e+00	N
atom  1.71653000e+00 2.58042000e+01 2.95702000e+00	N
atom  7.69367000e-02 3.01388000e+01 2.58661000e+00	Si
atom  1.49918000e+00 2.16497000e+01 5.37442000e+00	N
atom  5.93632000e-01 2.45415000e+01 6.54912000e+00	Si
atom  7.53019000e-01 2.46131000e+01 8.21031000e+00	N
atom  1.84556000e+00 2.44315000e+01 9.50934000e+00	Si
atom  -2.48936000e-01 2.59184000e+01 5.91846000e+00	N
atom  1.52624000e-01 2.87226000e+01 5.78269000e+00	N
atom  1.76146000e-01 2.73417000e+01 8.31607000e+00	N
atom  -1.22011000e-01 2.58781000e+01 9.17017000e+00	Si
atom  5.96284000e-01 2.86119000e+01 9.43291000e+00	Si
atom  6.96143000e-01 3.01322000e+01 8.63465000e+00	N
atom  5.35140000e-01 2.15017000e+01 1.27177000e+01	N
atom  5.20444000e-01 2.29732000e+01 1.17489000e+01	Si
atom  1.08029000e+00 2.41413000e+01 1.29141000e+01	N
atom  2.96965000e-01 2.21491000e+01 1.43173000e+01	Si
atom  1.51792000e+00 2.29769000e+01 1.03282000e+01	N
atom  3.69494000e-01 2.56107000e+01 1.23702000e+01	Si
atom  9.17388000e-01 2.99997000e+01 1.27158000e+01	N
atom  8.04013000e-01 2.55676000e+01 1.06000000e+01	N
atom  3.91580000e-02 2.85556000e+01 1.23386000e+01	Si
atom  1.06666000e+00 2.71493000e+01 1.26452000e+01	N
atom  1.31398000e+00 3.00344000e+01 1.43804000e+01	Si
atom  1.09896000e+00 2.18996000e+01 1.76001000e+01	N
atom  7.66655000e-02 2.45192000e+01 1.70297000e+01	N
atom  1.36618000e+00 2.33633000e+01 1.67516000e+01	Si
atom  1.03814000e+00 2.19135000e+01 1.93756000e+01	Si
atom  7.87962000e-03 2.06018000e+01 1.51276000e+01	N
atom  1.78006000e+00 2.28561000e+01 1.51123000e+01	N
atom  6.26685000e-01 2.03487000e+01 1.67560000e+01	Si
atom  1.11477000e+00 2.53963000e+01 1.81113000e+01	Si
atom  1.17643000e+00 2.68409000e+01 1.71065000e+01	N
atom  1.62654000e+00 2.80901000e+01 1.93133000e+01	N
atom  1.61009000e+00 2.83706000e+01 1.49804000e+01	N
atom  7.75403000e-01 2.83250000e+01 1.77909000e+01	Si
atom  1.65668000e+00 2.98049000e+01 1.75724000e+01	N
atom  1.07607000e+00 2.66905000e+01 1.54060000e+01	Si
atom  9.29582000e-01 2.55625000e+01 1.98347000e+01	N
atom  9.53908000e-01 2.20084000e+01 2.20623000e+01	N
atom  5.06414000e-02 2.35139000e+01 2.20359000e+01	Si
atom  -2.17028000e-01 2.11632000e+01 2.32544000e+01	Si
atom  1.67705000e+00 2.43074000e+01 2.24175000e+01	N
atom  1.54465000e+00 2.79404000e+01 2.42016000e+01	N
atom  7.76204000e-01 2.86384000e+01 2.06577000e+01	Si
atom  1.74465000e+00 2.94097000e+01 2.18377000e+01	N
atom  -3.33453000e-02 2.79798000e+01 2.48509000e+01	Si
atom  1.80071000e+00 2.09370000e+01 2.52453000e+01	Si
atom  1.15175000e-01 2.13495000e+01 2.49750000e+01	N
atom  -1.75490000e-01 2.21727000e+01 2.89855000e+01	N
atom  9.69711000e-01 2.40136000e+01 2.51316000e+01	N
atom  -1.55675000e-01 2.46887000e+01 2.76856000e+01	N
atom  -2.81463000e-01 2.97001000e+01 2.50057000e+01	N
atom  3.40784000e-01 2.54241000e+01 2.61616000e+01	Si
atom  -2.32045000e-01 2.71380000e+01 2.63607000e+01	N
atom  1.24739000e+00 2.67454000e+01 2.93183000e+01	N
atom  -2.45028000e-01 2.92945000e+01 2.97173000e+01	N
atom  1.31238000e+00 2.52100000e+01 2.84987000e+01	Si
atom  7.32075000e-01 2.18574000e+01 3.13969000e+01	N
atom  9.40882000e-02 2.34257000e+01 3.35267000e+01	N
atom  1.48594000e+00 2.26876000e+01 3.27675000e+01	Si
atom  1.28809000e+00 2.25411000e+01 2.98850000e+01	Si
atom  1.09433000e+00 2.99107000e+01 3.06198000e+01	Si
atom  6.86111000e-01 2.83540000e+01 3.40969000e+01	N
atom  9.63597000e-01 2.76890000e+01 3.24709000e+01	Si
atom  -2.08224000e-01 2.75022000e+01 2.99923000e+01	Si
atom  -3.89774000e-01 2.72167000e+01 3.16732000e+01	N
atom  1.86437000e-01 2.98587000e+01 3.47934000e+01	Si
atom  1.83476000e+00 2.84551000e+01 3.12268000e+01	N
atom  1.43046000e+00 2.26802000e+01 3.75711000e+01	N
atom  1.15664000e+00 2.10604000e+01 3.70105000e+01	Si
atom  6.19507000e-01 2.30101000e+01 3.52210000e+01	Si
atom  2.10984000e-01 2.13048000e+01 3.55007000e+01	N
atom  4.71224000e-01 2.31867000e+01 3.89903000e+01	Si
atom  4.87272000e-01 2.49618000e+01 3.87879000e+01	N
atom  6.85198000e-01 2.98311000e+01 3.92204000e+01	N
atom  1.37210000e+00 2.59799000e+01 3.76546000e+01	Si
atom  1.52622000e+00 2.70396000e+01 3.48373000e+01	Si
atom  -1.50534000e-03 2.97477000e+01 3.65260000e+01	N
atom  5.75296000e-01 2.80822000e+01 3.93280000e+01	Si
atom  5.70662000e-01 2.62266000e+01 3.60340000e+01	N
atom  7.45352000e-01 3.31439000e+01 1.62446000e+00	Si
atom  3.84644000e-01 3.14640000e+01 1.51827000e+00	N
atom  -1.84437000e-01 3.08411000e+01 4.12671000e+00	N
atom  1.18529000e-01 3.38737000e+01 8.15994000e-02	N
atom  8.51524000e-01 3.32121000e+01 4.60632000e+00	N
atom  -3.02998000e-01 3.10958000e+01 -3.12727000e-02	Si
atom  -4.74649000e-01 3.41864000e+01 4.13903000e+00	Si
atom  -1.22980000e-01 3.58851000e+01 4.32438000e+00	N
atom  4.52161000e-01 3.72247000e+01 1.28342000e+00	Si
atom  5.93930000e-01 3.82626000e+01 2.69170000e+00	N
atom  7.21148000e-01 3.99548000e+01 3.01561000e+00	Si
atom  -1.43870000e-01 3.76692000e+01 4.23808000e+00	Si
atom  1.81637000e+00 3.61761000e+01 1.15287000e+00	N
atom  -4.35585000e-01 3.97401000e+01 4.51359000e+00	N
atom  5.04135000e-01 3.83420000e+01 -1.54732000e-02	N
atom  1.51502000e+00 3.97047000e+01 -9.59078000e-02	Si
atom  1.12530000e+00 3.15367000e+01 4.95400000e+00	Si
atom  1.10020000e+00 3.12846000e+01 6.63770000e+00	N
atom  -2.28396000e-01 3.12366000e+01 7.79046000e+00	Si
atom  1.05328000e+00 3.71212000e+01 7.04601000e+00	Si
atom  1.54789000e+00 3.83525000e+01 8.26305000e+00	N
atom  1.13746000e+00 3.78151000e+01 5.48401000e+00	N
atom  1.75017000e+00 3.55653000e+01 7.23819000e+00	N
atom  -2.00428000e-01 3.88068000e+01 8.22293000e+00	Si
atom  -1.47065000e-01 4.03260000e+01 7.33968000e+00	N
atom  8.23391000e-01 3.28675000e+01 1.31772000e+01	N
atom  9.07286000e-01 3.22082000e+01 1.04791000e+01	N
atom  1.14020000e+00 3.15635000e+01 1.20803000e+01	Si
atom  1.06826000e+00 3.49443000e+01 9.96724000e+00	N
atom  -2.79669000e-01 3.24473000e+01 1.46547000e+01	Si
atom  -2.20880000e-02 3.35439000e+01 9.92803000e+00	Si
atom  2.86516000e-01 3.55301000e+01 1.28018000e+01	N
atom  1.56991000e+00 3.56559000e+01 1.15478000e+01	Si
atom  6.24749000e-01 3.83714000e+01 1.37788000e+01	N
atom  2.55747000e-01 3.66554000e+01 1.40870000e+01	Si
atom  1.90124000e+00 3.87480000e+01 1.25602000e+01	Si
atom  1.32491000e+00 4.00898000e+01 1.16300000e+01	N
atom  -4.36327000e-01 3.91619000e+01 1.49636000e+01	Si
atom  7.73786000e-01 3.10266000e+01 1.85277000e+01	Si
atom  1.39022000e+00 3.26191000e+01 1.84315000e+01	N
atom  7.12179000e-02 3.08395000e+01 1.52016000e+01	N
atom  -1.20307000e-03 3.32650000e+01 1.76122000e+01	Si
atom  -6.58138000e-02 3.35437000e+01 1.59429000e+01	N
atom  7.98823000e-01 3.49730000e+01 1.77499000e+01	N
atom  2.06804000e-01 3.52464000e+01 1.61296000e+01	Si
atom  5.44003000e-02 3.89297000e+01 1.66029000e+01	N
atom  1.57731000e+00 3.87804000e+01 1.73185000e+01	Si
atom  1.48163000e+00 3.58639000e+01 1.51348000e+01	N
atom  1.60022000e+00 3.77248000e+01 1.88252000e+01	N
atom  9.35912000e-01 3.61117000e+01 1.91421000e+01	Si
atom  5.97603000e-01 3.30250000e+01 2.33091000e+01	Si
atom  2.41811000e-01 3.19116000e+01 2.20711000e+01	N
atom  1.52105000e+00 3.10516000e+01 2.12553000e+01	Si
atom  3.90087000e-01 3.03694000e+01 2.01127000e+01	N
atom  1.12321000e+00 3.66244000e+01 2.15611000e+01	N
atom  4.33829000e-01 3.68627000e+01 2.43651000e+01	N
atom  1.51958000e+00 3.73110000e+01 2.30829000e+01	Si
atom  1.55752000e+00 3.89351000e+01 2.27671000e+01	N
atom  8.21266000e-01 4.00488000e+01 2.39195000e+01	Si
atom  7.64317000e-01 3.22372000e+01 2.50225000e+01	N
atom  1.50618000e-01 3.29899000e+01 2.91851000e+01	N
atom  7.37885000e-01 3.07471000e+01 2.59017000e+01	Si
atom  1.26532000e+00 3.18184000e+01 2.85678000e+01	Si
atom  1.48081000e-01 3.09468000e+01 2.75151000e+01	N
atom  8.74619000e-01 3.44176000e+01 2.99203000e+01	Si
atom  1.72467000e+00 3.52574000e+01 2.85676000e+01	N
atom  1.11265000e+00 3.94192000e+01 2.55641000e+01	N
atom  2.73319000e-01 3.69288000e+01 2.68658000e+01	N
atom  1.73213000e+00 3.68424000e+01 2.78780000e+01	Si
atom  -1.72955000e-01 3.81842000e+01 2.56481000e+01	Si
atom  1.86633000e+00 3.63507000e+01 2.52693000e+01	Si
atom  1.14524000e+00 3.33896000e+01 3.33328000e+01	N
atom  1.44372000e+00 3.16385000e+01 3.30303000e+01	Si
atom  3.55383000e-01 3.08825000e+01 3.19042000e+01	N
atom  1.48391000e+00 3.10064000e+01 3.46185000e+01	N
atom  2.02960000e+00 3.33099000e+01 3.07669000e+01	N
atom  -2.18577000e-01 3.61221000e+01 3.15464000e+01	Si
atom  1.19264000e+00 4.00209000e+01 3.42537000e+01	Si
atom  1.42787000e+00 3.57084000e+01 3.12750000e+01	N
atom  6.86752000e-01 3.91263000e+01 3.16203000e+01	Si
atom  1.35276000e+00 3.84146000e+01 3.47674000e+01	N
atom  -4.06069000e-02 4.00916000e+01 3.28907000e+01	N
atom  1.17802000e+00 3.42418000e+01 3.74978000e+01	N
atom  8.59014000e-01 3.07039000e+01 3.76701000e+01	Si
atom  -2.26815000e-01 3.35479000e+01 3.82823000e+01	Si
atom  -3.39437000e-01 3.65962000e+01 3.58648000e+01	N
atom  1.38639000e+00 3.70710000e+01 3.78189000e+01	N
atom  1.04134000e+00 3.58089000e+01 3.66606000e+01	Si
atom  -1.40424000e-01 3.79171000e+01 3.83645000e+01	Si
atom  -7.46423000e-02 3.91953000e+01 3.72191000e+01	N
atom  -5.39345000e-02 3.83232000e+01 3.57588000e+01	Si
atom  2.97528000e+00 4.20696000e+00 3.81364000e+00	Si
atom  2.87871000e+00 2.58687000e+00 3.13932000e+00	N
atom  3.21096000e+00 1.48853000e+00 1.86562000e+00	Si
atom  3.32036000e+00 2.27110000e+00 3.34044000e-01	N
atom  3.54709000e+00 3.98293000e+00 1.41560000e-01	Si
atom  2.55795000e+00 1.77027000e+00 4.77045000e+00	Si
atom  3.46879000e+00 5.27849000e+00 1.35504000e+00	N
atom  3.48016000e+00 8.18024000e+00 3.14501000e+00	Si
atom  3.79684000e+00 9.85438000e+00 2.75560000e+00	N
atom  2.16832000e+00 7.92794000e+00 1.95685000e+00	N
atom  3.25813000e+00 9.65830000e+00 5.04925000e-02	N
atom  2.02960000e+00 6.11074000e+00 1.78631000e+00	Si
atom  3.06853000e+00 7.78712000e+00 4.76838000e+00	N
atom  1.82744000e+00 9.28782000e+00 9.35817000e-01	Si
atom  3.62649000e+00 2.13904000e+00 9.01463000e+00	Si
atom  2.87804000e+00 3.64867000e+00 5.48907000e+00	N
atom  2.68130000e+00 9.00463000e-01 8.18904000e+00	N
atom  4.21881000e+00 1.48388000e+00 5.28845000e+00	N
atom  4.32174000e+00 2.91272000e+00 6.20047000e+00	Si
atom  3.62862000e+00 8.31367000e+00 7.67428000e+00	N
atom  2.25174000e+00 9.58094000e+00 7.83703000e+00	Si
atom  3.50633000e+00 7.14968000e+00 6.36851000e+00	Si
atom  2.23371000e+00 6.00745000e+00 6.72123000e+00	N
atom  3.62933000e+00 2.11614000e+00 1.26047000e+01	N
atom  2.57840000e+00 2.61733000e+00 1.03156000e+01	N
atom  3.76037000e+00 8.99533000e-01 1.39112000e+01	Si
atom  2.57179000e+00 4.68861000e+00 1.29984000e+01	N
atom  2.13494000e+00 1.76263000e+00 1.17266000e+01	Si
atom  4.00173000e+00 3.79885000e+00 1.25955000e+01	Si
atom  2.83299000e+00 5.80641000e+00 1.43972000e+01	Si
atom  2.86860000e+00 8.49739000e+00 1.34319000e+01	Si
atom  3.84056000e+00 7.09057000e+00 1.37992000e+01	N
atom  2.31027000e+00 8.48937000e+00 1.02470000e+01	Si
atom  3.98079000e+00 8.99463000e+00 1.03073000e+01	N
atom  2.64467000e+00 1.45876000e+00 1.51173000e+01	N
atom  3.27829000e+00 3.00532000e+00 1.75422000e+01	N
atom  3.68213000e+00 4.82307000e+00 1.55964000e+01	N
atom  2.78722000e+00 1.02689000e+00 1.93229000e+01	Si
atom  3.12534000e+00 1.50749000e+00 1.67471000e+01	Si
atom  2.45089000e+00 4.18346000e+00 1.66405000e+01	Si
atom  4.23411000e+00 3.46207000e+00 1.89794000e+01	Si
atom  4.28326000e+00 1.92783000e+00 1.98166000e+01	N
atom  2.33052000e+00 3.93001000e-01 1.77914000e+01	N
atom  2.01124000e+00 5.63011000e+00 1.94780000e+01	Si
atom  4.04689000e+00 9.77366000e+00 1.59620000e+01	N
atom  2.51633000e+00 9.30061000e+00 1.62540000e+01	Si
atom  2.97783000e+00 8.18467000e+00 1.89660000e+01	Si
atom  2.47777000e+00 7.93532000e+00 1.73546000e+01	N
atom  3.34839000e+00 2.45341000e+00 2.38391000e+01	Si
atom  2.45787000e+00 9.55451000e-01 2.37955000e+01	N
atom  2.59663000e+00 3.03037000e+00 2.10142000e+01	Si
atom  2.92752000e+00 4.03742000e+00 2.44540000e+01	N
atom  3.82262000e+00 2.45522000e+00 2.21932000e+01	N
atom  3.21224000e+00 4.40036000e+00 2.01446000e+01	N
atom  3.60541000e+00 5.58260000e+00 2.40679000e+01	Si
atom  3.05219000e+00 5.81401000e+00 2.25204000e+01	N
atom  3.89313000e+00 5.80369000e+00 2.10699000e+01	Si
atom  2.37635000e+00 9.55813000e+00 2.34500000e+01	Si
atom  3.99685000e+00 9.90909000e+00 2.40603000e+01	N
atom  3.18391000e+00 1.01353000e+01 2.15947000e+01	N
atom  3.11631000e+00 6.87218000e+00 1.99919000e+01	N
atom  2.15603000e+00 2.17314000e+00 2.61798000e+01	N
atom  2.37250000e+00 4.41348000e+00 2.90376000e+01	Si
atom  2.74891000e+00 3.84293000e+00 2.61816000e+01	Si
atom  4.00588000e+00 4.99466000e+00 2.91000000e+01	N
atom  1.97890000e+00 2.69497000e+00 2.89851000e+01	N
atom  3.76043000e+00 6.91675000e+00 2.51958000e+01	N
atom  2.97594000e+00 8.26887000e+00 2.59085000e+01	Si
atom  2.11826000e+00 7.70655000e+00 2.73304000e+01	N
atom  3.12848000e+00 1.86469000e+00 3.30355000e+01	Si
atom  2.67231000e+00 2.80835000e+00 3.44248000e+01	N
atom  2.27681000e+00 4.47863000e+00 3.43471000e+01	Si
atom  3.39640000e+00 3.87283000e-01 3.02234000e+01	N
atom  2.15419000e+00 2.53056000e+00 3.17177000e+01	N
atom  2.04998000e+00 1.58060000e+00 3.03063000e+01	Si
atom  3.84561000e+00 5.23501000e+00 3.41251000e+01	N
atom  3.36085000e+00 8.35928000e+00 3.12984000e+01	Si
atom  3.03767000e+00 7.36490000e+00 3.26842000e+01	N
atom  1.99387000e+00 8.80771000e+00 3.04020000e+01	N
atom  1.86401000e+00 7.90026000e+00 3.39122000e+01	Si
atom  3.36870000e+00 1.24945000e+00 3.87307000e+01	Si
atom  2.97908000e+00 2.11925000e+00 3.71876000e+01	N
atom  2.00282000e+00 4.25538000e+00 3.91324000e+01	N
atom  1.79954000e+00 7.06529000e+00 3.81482000e+01	N
atom  2.00526000e+00 9.68129000e+00 3.75120000e+01	N
atom  3.11119000e+00 7.40520000e+00 3.69548000e+01	Si
atom  2.80419000e+00 7.94236000e+00 3.53686000e+01	N
atom  3.67636000e+00 1.00067000e+01 3.82931000e+01	Si
atom  4.13747000e+00 5.96834000e+00 3.67412000e+01	N
atom  3.09555000e+00 1.24472000e+01 3.37326000e+00	N
atom  2.43184000e+00 1.09021000e+01 3.15408000e+00	Si
atom  2.45352000e+00 1.51619000e+01 3.73575000e+00	N
atom  2.02759000e+00 1.53909000e+01 2.05881000e+00	Si
atom  3.28279000e+00 1.52799000e+01 8.62049000e-01	N
atom  3.65525000e+00 1.98602000e+01 2.21251000e+00	Si
atom  3.58072000e+00 1.74667000e+01 4.50072000e+00	N
atom  2.25744000e+00 1.98315000e+01 3.36431000e+00	N
atom  4.14339000e+00 1.86717000e+01 1.01055000e+00	N
atom  2.43256000e+00 1.86907000e+01 4.71442000e+00	Si
atom  3.42900000e+00 1.57986000e+01 4.99303000e+00	Si
atom  2.86733000e+00 1.11135000e+01 7.38267000e+00	N
atom  1.88822000e+00 1.33345000e+01 5.61313000e+00	N
atom  3.01910000e+00 1.94825000e+01 6.14730000e+00	N
atom  2.70651000e+00 1.57089000e+01 6.60912000e+00	N
atom  2.71499000e+00 1.58579000e+01 9.41816000e+00	N
atom  3.64003000e+00 1.61257000e+01 7.96819000e+00	Si
atom  2.96274000e+00 1.39193000e+01 1.16921000e+01	N
atom  3.49480000e+00 1.14867000e+01 1.16716000e+01	N
atom  2.70152000e+00 1.25226000e+01 1.27940000e+01	Si
atom  3.57723000e+00 1.21177000e+01 1.43061000e+01	N
atom  2.64321000e+00 1.45568000e+01 1.48432000e+01	N
atom  3.44605000e+00 1.54102000e+01 1.09317000e+01	Si
atom  3.36372000e+00 1.67720000e+01 1.19728000e+01	N
atom  3.30976000e+00 1.98188000e+01 1.24252000e+01	Si
atom  4.19273000e+00 1.74570000e+01 1.43098000e+01	N
atom  3.51993000e+00 1.15195000e+01 1.90707000e+01	N
atom  3.88004000e+00 1.34999000e+01 1.71479000e+01	N
atom  3.92295000e+00 1.34302000e+01 1.53612000e+01	Si
atom  3.16491000e+00 1.49683000e+01 1.76423000e+01	Si
atom  2.87247000e+00 1.63061000e+01 1.49572000e+01	Si
atom  3.56379000e+00 1.98697000e+01 1.71692000e+01	Si
atom  3.71850000e+00 1.96004000e+01 1.88960000e+01	N
atom  2.29504000e+00 1.89490000e+01 1.95247000e+01	Si
atom  2.76448000e+00 1.64078000e+01 1.66802000e+01	N
atom  1.96824000e+00 1.92579000e+01 1.68468000e+01	N
atom  2.71864000e+00 1.28778000e+01 2.34893000e+01	Si
atom  2.88919000e+00 1.46218000e+01 2.34609000e+01	N
atom  4.19121000e+00 1.03824000e+01 2.01319000e+01	Si
atom  3.77056000e+00 1.56921000e+01 2.44203000e+01	Si
atom  2.55212000e+00 1.72870000e+01 2.22013000e+01	Si
atom  3.52067000e+00 1.72260000e+01 2.37042000e+01	N
atom  2.76084000e+00 1.87528000e+01 2.12624000e+01	N
atom  2.22373000e+00 1.59071000e+01 2.11289000e+01	N
atom  3.55970000e+00 1.85690000e+01 2.47678000e+01	Si
atom  1.95180000e+00 1.92476000e+01 2.48700000e+01	N
atom  2.36501000e+00 1.09621000e+01 2.71948000e+01	N
atom  2.81764000e+00 1.25177000e+01 2.52117000e+01	N
atom  3.09201000e+00 1.26437000e+01 2.69609000e+01	Si
atom  4.00452000e+00 1.04696000e+01 2.76724000e+01	Si
atom  2.11063000e+00 1.38367000e+01 2.76949000e+01	N
atom  1.90266000e+00 1.72275000e+01 2.90235000e+01	Si
atom  3.84324000e+00 1.83086000e+01 2.64989000e+01	N
atom  3.44207000e+00 1.64541000e+01 2.86427000e+01	N
atom  3.49461000e+00 1.95983000e+01 2.75886000e+01	Si
atom  2.65717000e+00 1.88606000e+01 2.89512000e+01	N
atom  4.16062000e+00 1.67430000e+01 2.70551000e+01	Si
atom  3.22572000e+00 1.57125000e+01 2.60266000e+01	N
atom  3.16128000e+00 1.36802000e+01 3.15284000e+01	Si
atom  3.57009000e+00 1.23153000e+01 3.36537000e+01	Si
atom  3.05484000e+00 1.39658000e+01 3.33404000e+01	N
atom  3.64604000e+00 1.21072000e+01 3.18654000e+01	N
atom  2.37102000e+00 1.14398000e+01 3.47056000e+01	N
atom  2.75232000e+00 1.85825000e+01 3.37638000e+01	N
atom  2.35004000e+00 1.76825000e+01 3.21453000e+01	Si
atom  3.89753000e+00 1.71527000e+01 3.14960000e+01	N
atom  2.90870000e+00 1.99890000e+01 3.03082000e+01	Si
atom  2.00296000e+00 1.92818000e+01 3.15422000e+01	N
atom  3.37959000e+00 2.00146000e+01 3.28872000e+01	Si
atom  2.66962000e+00 1.28303000e+01 3.81001000e+01	Si
atom  3.35712000e+00 1.44153000e+01 3.81496000e+01	N
atom  3.54043000e+00 1.15517000e+01 3.72343000e+01	N
atom  2.36493000e+00 1.25109000e+01 3.97106000e+01	N
atom  3.40598000e+00 2.01245000e+01 3.85776000e+01	N
atom  3.85743000e+00 1.81652000e+01 3.64379000e+01	N
atom  3.84127000e+00 1.98753000e+01 3.68560000e+01	Si
atom  3.41732000e+00 1.75168000e+01 3.49252000e+01	Si
atom  3.06420000e+00 1.86706000e+01 3.95461000e+01	Si
atom  3.23616000e+00 1.71585000e+01 3.88232000e+01	N
atom  2.47627000e+00 1.60854000e+01 3.52808000e+01	N
atom  2.63049000e+00 1.55767000e+01 3.92381000e+01	Si
atom  3.47538000e+00 2.12597000e+01 1.15717000e+00	N
atom  3.76699000e+00 2.42163000e+01 4.25362000e-01	Si
atom  2.17141000e+00 2.39422000e+01 8.43134000e-01	N
atom  2.12093000e+00 2.22726000e+01 1.26170000e+00	Si
atom  4.24681000e+00 2.53257000e+01 4.61622000e+00	N
atom  2.86104000e+00 2.93904000e+01 3.01580000e+00	Si
atom  2.57243000e+00 2.59826000e+01 4.46989000e+00	Si
atom  2.43413000e+00 2.75736000e+01 4.91648000e+00	N
atom  2.17628000e+00 2.48418000e+01 5.89755000e+00	N
atom  3.82801000e+00 2.50195000e+01 6.30408000e+00	Si
atom  2.53738000e+00 2.14930000e+01 8.23717000e+00	N
atom  1.91818000e+00 2.06899000e+01 6.76434000e+00	Si
atom  1.94136000e+00 2.13427000e+01 9.92264000e+00	Si
atom  1.84004000e+00 2.89502000e+01 5.64711000e+00	Si
atom  3.07904000e+00 2.93076000e+01 6.83506000e+00	N
atom  3.08448000e+00 2.56332000e+01 9.61018000e+00	N
atom  3.19581000e+00 2.08369000e+01 1.10193000e+01	N
atom  3.88798000e+00 2.33105000e+01 1.39408000e+01	N
atom  2.36044000e+00 2.41737000e+01 1.40372000e+01	Si
atom  3.66074000e+00 2.05681000e+01 1.39074000e+01	N
atom  2.01645000e+00 2.82019000e+01 1.02720000e+01	N
atom  3.48258000e+00 2.64372000e+01 1.22654000e+01	N
atom  2.61074000e+00 2.71994000e+01 1.35621000e+01	Si
atom  2.34043000e+00 2.65786000e+01 1.09169000e+01	Si
atom  3.51996000e+00 2.91544000e+01 1.01229000e+01	Si
atom  4.02078000e+00 2.79913000e+01 1.43665000e+01	N
atom  2.24715000e+00 2.57893000e+01 1.46710000e+01	N
atom  3.27064000e+00 2.19455000e+01 1.48122000e+01	Si
atom  3.85841000e+00 2.14642000e+01 1.64479000e+01	N
atom  2.48690000e+00 2.42568000e+01 1.78117000e+01	N
atom  3.40995000e+00 2.37626000e+01 1.91166000e+01	Si