lattice_vector  3.98782322e+01 0.00000000e+00 0.00000000e+00
lattice_vector  2.44183747e-15 3.98782322e+01 0.00000000e+00
lattice_vector  2.44183747e-15 2.44183747e-15 3.98782322e+01
atom  1.12421000e+00 1.21113000e+00 1.44534000e+00	Si
atom  1.02521000e+00 2.31188000e+00 2.80986000e+00	N
atom  1.63901000e-01 3.84991000e+00 2.69791000e+00	Si
atom  1.18298000e+00 5.18841000e+00 2.29741000e+00	N
atom  1.14927000e+00 5.31623000e+00 5.10753000e-01	Si
atom  1.57062000e+00 6.48416000e+00 3.41195000e+00	Si
atom  7.66917000e-01 7.93956000e+00 2.78385000e+00	N
atom  1.11647000e+00 9.39717000e+00 3.77904000e+00	Si
atom  -2.56483000e-01 6.36505000e+00 2.23267000e-01	N
atom  7.37125000e-01 6.30628000e+00 4.87436000e+00	N
atom  1.17730000e+00 9.97394000e-01 5.33630000e+00	N
atom  9.46634000e-01 3.54851000e+00 6.16968000e+00	N
atom  5.70410000e-01 1.53480000e+00 7.94994000e+00	N
atom  -1.30813000e-02 1.95403000e+00 6.26697000e+00	Si
atom  -3.03279000e-02 4.88258000e+00 5.49225000e+00	Si
atom  1.90924000e+00 4.37131000e+00 8.82406000e+00	N
atom  1.64839000e+00 9.11741000e+00 5.43960000e+00	N
atom  9.56068000e-01 9.94729000e+00 9.75149000e+00	N
atom  9.27349000e-01 7.61880000e+00 6.03285000e+00	Si
atom  -1.61749000e-01 5.87004000e+00 9.44204000e+00	N
atom  1.44119000e+00 6.14701000e+00 8.78112000e+00	Si
atom  1.88732000e+00 6.74928000e+00 7.20436000e+00	N
atom  1.54239000e+00 2.44094000e+00 1.10779000e+01	N
atom  6.72040000e-01 5.07296000e+00 1.42911000e+01	N
atom  -1.83993000e-01 2.30708000e+00 1.13180000e+01	Si
atom  1.70363000e+00 5.23977000e+00 1.14896000e+01	N
atom  1.20982000e+00 8.70011000e+00 1.09501000e+01	Si
atom  3.39764000e-01 6.29112000e+00 1.10533000e+01	Si
atom  1.19029000e+00 6.70627000e+00 1.44990000e+01	Si
atom  -2.21043000e-01 7.87058000e+00 1.14008000e+01	N
atom  -1.92892000e-01 7.64192000e+00 1.42846000e+01	N
atom  1.97279000e+00 7.42234000e+00 1.00656000e+01	N
atom  1.54963000e-01 4.98252000e+00 1.71543000e+01	N
atom  6.75167000e-02 2.63409000e+00 1.57508000e+01	N
atom  1.78711000e+00 3.64431000e+00 1.94405000e+01	N
atom  3.46461000e-01 4.28547000e+00 1.87887000e+01	Si
atom  1.00185000e+00 4.09246000e+00 1.57700000e+01	Si
atom  -1.50758000e-01 7.47912000e+00 1.79874000e+01	N
atom  1.71512000e+00 7.13654000e+00 1.60380000e+01	N
atom  1.14854000e+00 6.46507000e+00 1.75032000e+01	Si
atom  1.89018000e+00 9.36000000e+00 1.96382000e+01	N
atom  8.95494000e-01 1.81359000e+00 2.18151000e+01	N
atom  1.48965000e+00 4.21724000e+00 2.20847000e+01	N
atom  1.59010000e+00 1.11537000e+00 2.32165000e+01	Si
atom  5.41223000e-02 3.22424000e+00 2.24726000e+01	Si
atom  8.82513000e-01 5.80016000e+00 2.14187000e+01	Si
atom  5.26616000e-01 9.57680000e+00 2.20170000e+01	N
atom  8.24119000e-01 6.44520000e+00 2.41900000e+01	Si
atom  -6.86590000e-02 6.29805000e+00 2.26634000e+01	N
atom  1.06579000e+00 8.12028000e+00 2.44753000e+01	N
atom  -1.85696000e-01 9.11736000e+00 2.35695000e+01	Si
atom  5.89089000e-02 5.61764000e+00 1.98374000e+01	N
atom  1.57071000e+00 2.67069000e+00 2.87238000e+01	N
atom  1.43201000e+00 4.08430000e+00 2.77461000e+01	Si
atom  8.82329000e-01 1.65732000e+00 2.74892000e+01	Si
atom  9.08731000e-01 3.17261000e+00 2.63595000e+01	N
atom  4.67541000e-01 4.70718000e-01 2.88215000e+01	N
atom  1.66686000e-01 6.54362000e+00 2.70013000e+01	Si
atom  1.66098000e-01 1.00983000e+01 2.72739000e+01	N
atom  2.69566000e-01 5.28804000e+00 2.82215000e+01	N
atom  -5.91355000e-02 5.71798000e+00 2.55302000e+01	N
atom  1.82887000e+00 7.37077000e+00 2.70355000e+01	N
atom  2.48470000e-01 4.56005000e+00 3.08489000e+01	N
atom  9.11592000e-01 3.22344000e+00 3.32210000e+01	N
atom  5.47397000e-01 1.01264000e+00 3.05120000e+01	Si
atom  -3.17446000e-01 3.43375000e+00 3.20771000e+01	Si
atom  1.80570000e+00 5.34908000e+00 3.08095000e+01	Si
atom  1.98129000e+00 1.75559000e+00 3.11248000e+01	N
atom  1.09179000e+00 4.02721000e+00 3.47622000e+01	Si
atom  2.35774000e-01 9.62812000e+00 3.05170000e+01	Si
atom  3.86896000e-01 7.23161000e+00 3.28251000e+01	Si
atom  7.85109000e-01 8.19556000e+00 3.42029000e+01	N
atom  4.26858000e-01 8.18393000e+00 3.14084000e+01	N
atom  1.86360000e+00 6.30791000e+00 3.23297000e+01	N
atom  1.63446000e+00 1.61538000e+00 3.69072000e+01	Si
atom  7.68403000e-01 2.95871000e+00 3.61479000e+01	N
atom  1.81004000e-01 8.77891000e-01 3.74214000e+01	N
atom  1.03331000e+00 3.81238000e+00 3.95845000e+01	N
atom  -9.77472000e-02 5.33672000e+00 3.48359000e+01	N
atom  6.22900000e-01 8.79932000e+00 3.88009000e+01	N
atom  1.39932000e+00 6.78954000e+00 3.68783000e+01	N
atom  1.81059000e+00 7.57195000e+00 3.83753000e+01	Si
atom  -2.49665000e-01 6.36867000e+00 3.62797000e+01	Si
atom  -3.17835000e-01 1.01606000e+01 3.61650000e+01	N
atom  1.38779000e+00 1.28898000e+01 2.85161000e+00	N
atom  1.42887000e+00 1.36448000e+01 4.41923000e+00	Si
atom  2.41975000e-01 1.43861000e+01 1.83847000e-01	Si
atom  2.46083000e-01 1.50126000e+01 4.59414000e+00	N
atom  1.56490000e+00 1.31663000e+01 1.88509000e-01	N
atom  -2.66467000e-01 1.29744000e+01 2.29587000e+00	Si
atom  3.93474000e-01 1.83072000e+01 1.07955000e+00	N
atom  8.89513000e-01 1.65437000e+01 4.00782000e+00	Si
atom  1.37576000e+00 1.68719000e+01 9.08139000e-01	Si
atom  1.48944000e+00 1.92385000e+01 1.43246000e-01	Si
atom  9.68915000e-01 1.97937000e+01 4.13915000e+00	N
atom  1.65877000e+00 1.62097000e+01 2.47101000e+00	N
atom  1.62881000e+00 1.39365000e+01 7.71096000e+00	N
atom  1.00075000e+00 1.24402000e+01 7.16980000e+00	Si
atom  6.06178000e-01 1.25366000e+01 5.48533000e+00	N
atom  4.67398000e-01 1.49934000e+01 8.46217000e+00	Si
atom  -3.82610000e-01 1.21276000e+01 8.23674000e+00	N
atom  7.22709000e-01 1.98836000e+01 5.90860000e+00	Si
atom  6.22989000e-01 1.65709000e+01 7.71839000e+00	N
atom  -1.37505000e-01 1.86398000e+01 9.38060000e+00	N
atom  1.56495000e+00 1.81552000e+01 9.06626000e+00	Si
atom  9.05550000e-01 1.19751000e+01 1.39582000e+01	Si
atom  6.21392000e-01 1.49769000e+01 1.01498000e+01	N
atom  1.33558000e+00 1.34877000e+01 1.47122000e+01	N
atom  -1.21021000e-01 1.50287000e+01 1.28934000e+01	N
atom  8.51786000e-01 1.03884000e+01 1.47145000e+01	N
atom  2.06528000e+00 1.23805000e+01 1.27437000e+01	N
atom  5.60561000e-01 1.65353000e+01 1.34411000e+01	Si
atom  1.16594000e+00 1.71236000e+01 1.18973000e+01	N
atom  2.42242000e-01 2.00119000e+01 1.03812000e+01	Si
atom  1.79555000e+00 1.59028000e+01 1.09482000e+01	Si
atom  -3.84918000e-01 2.01490000e+01 1.19791000e+01	N
atom  5.31890000e-01 2.01806000e+01 1.34477000e+01	Si
atom  1.07709000e+00 1.05974000e+01 1.88419000e+01	Si
atom  8.51824000e-01 1.43328000e+01 1.61492000e+01	Si
atom  2.41084000e-01 1.32530000e+01 1.88167000e+01	Si
atom  1.30570000e+00 1.31614000e+01 1.74163000e+01	N
atom  1.74297000e-01 1.47728000e+01 1.95938000e+01	N
atom  -1.10467000e-01 1.98188000e+01 1.50118000e+01	N
atom  1.36698000e+00 1.74957000e+01 1.86758000e+01	N
atom  -9.66375000e-02 1.81460000e+01 1.81344000e+01	Si
atom  -2.27064000e-01 1.98968000e+01 1.81108000e+01	N
atom  1.84053000e+00 1.57614000e+01 1.65776000e+01	N
atom  4.55648000e-01 1.13014000e+01 2.15803000e+01	Si
atom  4.11137000e-02 1.35235000e+01 2.42542000e+01	N
atom  1.62008000e+00 1.34304000e+01 2.34533000e+01	Si
atom  1.56992000e+00 1.46445000e+01 2.22406000e+01	N
atom  1.68405000e+00 1.19286000e+01 2.26218000e+01	N
atom  -1.32558000e-01 1.05409000e+01 2.45102000e+01	N
atom  6.16818000e-01 1.19185000e+01 1.98634000e+01	N
atom  1.46144000e+00 1.53273000e+01 2.06487000e+01	Si
atom  1.68498000e+00 1.81708000e+01 2.03641000e+01	Si
atom  8.44419000e-01 1.96250000e+01 2.07155000e+01	N
atom  1.16803000e+00 1.68814000e+01 2.13783000e+01	N
atom  1.37113000e+00 1.62096000e+01 2.30201000e+01	Si
atom  1.23481000e-01 1.63217000e+01 2.41988000e+01	N
atom  1.25439000e+00 1.22785000e+01 2.65197000e+01	N
atom  1.31032000e-01 1.17947000e+01 2.77838000e+01	Si
atom  8.49455000e-01 1.18274000e+01 2.93303000e+01	N
atom  1.00795000e+00 1.06327000e+01 2.58144000e+01	Si
atom  2.79582000e-02 1.52164000e+01 2.89530000e+01	N
atom  4.61154000e-01 1.72910000e+01 2.70524000e+01	N
atom  1.16219000e+00 1.61047000e+01 2.80333000e+01	Si
atom  4.06550000e-01 1.89923000e+01 2.93190000e+01	N
atom  8.89781000e-01 2.00710000e+01 2.71192000e+01	N
atom  2.22351000e-01 1.76617000e+01 2.53301000e+01	Si
atom  1.58174000e+00 1.87520000e+01 2.49003000e+01	N
atom  -1.56077000e-01 1.88160000e+01 2.77245000e+01	Si
atom  1.60173000e+00 2.01595000e+01 2.88039000e+01	Si
atom  8.08161000e-01 1.15223000e+01 3.40978000e+01	N
atom  4.39892000e-01 1.37184000e+01 3.14092000e+01	N
atom  2.45294000e-01 1.09333000e+01 3.16359000e+01	N
atom  -1.19166000e-01 1.23460000e+01 3.06667000e+01	Si
atom  1.81040000e+00 1.09471000e+01 3.26974000e+01	Si
atom  -2.10619000e-01 1.51538000e+01 3.07669000e+01	Si
atom  2.75610000e-01 1.90463000e+01 3.21069000e+01	N
atom  6.47679000e-01 1.62758000e+01 3.17505000e+01	N
atom  -3.99182000e-01 1.74794000e+01 3.23403000e+01	Si
atom  1.11889000e+00 1.11406000e+01 3.58116000e+01	Si
atom  9.10617000e-01 1.23332000e+01 3.70732000e+01	N
atom  -3.81313000e-01 1.34596000e+01 3.73508000e+01	Si
atom  -5.16929000e-02 1.51480000e+01 3.71014000e+01	N
atom  1.33654000e+00 1.84284000e+01 3.70334000e+01	Si
atom  1.54867000e+00 1.55700000e+01 3.78537000e+01	Si
atom  1.04401000e+00 1.58102000e+01 3.95189000e+01	N
atom  1.77342000e+00 1.93368000e+01 3.56921000e+01	N
atom  -1.49786000e-01 1.77313000e+01 3.66050000e+01	N
atom  1.07220000e+00 1.95799000e+01 3.83560000e+01	N
atom  3.42178000e-01 2.18817000e+01 2.49742000e+00	N
atom  1.03417000e+00 2.46670000e+01 3.15478000e+00	N
atom  1.03860000e+00 2.19015000e+01 9.18158000e-01	Si
atom  1.14502000e+00 2.29720000e+01 3.48719000e+00	Si
atom  1.74684000e+00 2.32307000e+01 1.10409000e-01	N
atom  -3.16994000e-01 2.13506000e+01 -2.30974000e-02	N
atom  1.43877000e+00 2.97291000e+01 1.38114000e+00	N
atom  3.16775000e-01 2.94895000e+01 4.24780000e+00	N
atom  9.50390000e-01 2.62458000e+01 2.42125000e+00	Si
atom  1.68455000e+00 2.71998000e+01 3.64160000e+00	N
atom  1.54863000e-01 3.00690000e+01 2.60206000e+00	Si
atom  1.38354000e+00 2.83582000e+01 4.95516000e+00	Si
atom  5.93313000e-01 2.49522000e+01 4.80396000e+00	Si
atom  2.95771000e-01 2.32712000e+01 4.98784000e+00	N
atom  1.16788000e+00 2.19868000e+01 8.31600000e+00	Si
atom  2.86073000e-01 2.12668000e+01 6.94181000e+00	N
atom  1.12701000e-01 2.15909000e+01 9.62910000e+00	N
atom  1.19562000e+00 2.52322000e+01 7.74226000e+00	Si
atom  1.74718000e+00 2.35948000e+01 8.27419000e+00	N
atom  2.09220000e-01 2.88446000e+01 9.09782000e+00	N
atom  1.81939000e+00 2.63703000e+01 8.93994000e+00	N
atom  6.22240000e-01 2.78474000e+01 6.40775000e+00	N
atom  1.73700000e+00 2.52789000e+01 6.06003000e+00	N
atom  9.94407000e-01 2.90715000e+01 7.55621000e+00	Si
atom  7.41553000e-01 2.19844000e+01 1.36729000e+01	N
atom  1.35881000e+00 2.29685000e+01 1.22015000e+01	Si
atom  -3.37021000e-01 2.31651000e+01 1.17825000e+01	N
atom  -2.19379000e-01 2.63467000e+01 1.06491000e+01	N
atom  1.46495000e+00 2.94884000e+01 1.16745000e+01	Si
atom  9.20418000e-01 2.73774000e+01 1.00082000e+01	Si
atom  -2.55078000e-01 2.95026000e+01 1.15334000e+01	N
atom  1.78705000e+00 2.99851000e+01 1.32352000e+01	N
atom  7.50385000e-01 2.19145000e+01 1.66132000e+01	N
atom  1.59353000e-01 2.07455000e+01 1.95079000e+01	Si
atom  1.63963000e+00 2.20991000e+01 1.51218000e+01	Si
atom  1.18156000e+00 2.21041000e+01 1.93814000e+01	N
atom  1.84770000e+00 2.25578000e+01 1.78084000e+01	Si
atom  1.71181000e+00 2.51679000e+01 1.63735000e+01	Si
atom  -3.95003000e-02 2.52821000e+01 1.60917000e+01	N
atom  1.72869000e+00 2.98839000e+01 1.97727000e+01	Si
atom  -1.71171000e-01 2.64168000e+01 1.73885000e+01	Si
atom  1.57654000e+00 2.67496000e+01 1.74420000e+01	N
atom  6.85961000e-01 2.99726000e+01 1.83216000e+01	N
atom  5.57205000e-01 2.21524000e+01 2.36000000e+01	Si
atom  1.51500000e+00 2.25482000e+01 2.22367000e+01	N
atom  1.29712000e-01 2.34920000e+01 2.45311000e+01	N
atom  -3.31448000e-01 2.06932000e+01 2.33758000e+01	N
atom  1.08689000e+00 2.55249000e+01 2.08184000e+01	N
atom  2.01079000e-01 2.74208000e+01 2.28446000e+01	N
atom  8.49902000e-01 2.91785000e+01 2.10006000e+01	N
atom  1.50218000e+00 2.66068000e+01 2.21879000e+01	Si
atom  8.85906000e-01 2.99351000e+01 2.34640000e+01	N
atom  1.35059000e+00 2.31403000e+01 2.57384000e+01	Si
atom  9.82123000e-01 2.17629000e+01 2.92807000e+01	N
atom  7.12558000e-01 2.35372000e+01 2.72667000e+01	N
atom  -8.94704000e-02 2.29730000e+01 2.86332000e+01	Si
atom  9.35204000e-01 2.88317000e+01 2.92701000e+01	Si
atom  6.34318000e-01 2.76833000e+01 2.62530000e+01	Si
atom  1.05339000e-01 2.82972000e+01 2.78122000e+01	N
atom  7.67183000e-01 2.60452000e+01 2.56401000e+01	N
atom  1.37394000e+00 2.09745000e+01 3.33871000e+01	N
atom  7.10602000e-01 2.43319000e+01 3.13042000e+01	Si
atom  1.59445000e-01 2.36065000e+01 3.28804000e+01	N
atom  1.67254000e+00 2.26055000e+01 3.29260000e+01	Si
atom  -1.69740000e-01 2.02307000e+01 3.34366000e+01	Si
atom  -2.62264000e-01 2.40860000e+01 2.99074000e+01	N
atom  -3.17353000e-01 2.77348000e+01 3.35131000e+01	N
atom  1.43376000e+00 2.58643000e+01 3.16616000e+01	N
atom  1.36594000e-01 2.69900000e+01 3.20272000e+01	Si
atom  8.92124000e-02 2.79056000e+01 3.05043000e+01	N
atom  -1.48511000e-01 2.35479000e+01 3.61670000e+01	Si
atom  1.09872000e+00 2.46837000e+01 3.57479000e+01	N
atom  4.55991000e-01 2.26819000e+01 3.75939000e+01	N
atom  1.20363000e-01 2.10905000e+01 3.81449000e+01	Si
atom  7.18083000e-01 2.39216000e+01 3.88327000e+01	Si
atom  1.76111000e-03 2.73365000e+01 3.66868000e+01	N
atom  1.41253000e+00 2.54092000e+01 3.82525000e+01	N
atom  1.27950000e+00 2.61233000e+01 3.67020000e+01	Si
atom  1.15536000e+00 2.95283000e+01 3.54504000e+01	N
atom  -5.08144000e-02 2.82928000e+01 3.51884000e+01	Si
atom  1.44326000e+00 2.97144000e+01 3.84011000e+01	N
atom  4.51847000e-01 2.98572000e+01 3.97799000e+01	Si
atom  -4.28820000e-01 2.83592000e+01 3.94436000e+01	N
atom  8.25946000e-01 3.28530000e+01 5.16487000e-01	Si
atom  1.32829000e+00 3.42505000e+01 4.60889000e+00	Si
atom  -6.10409000e-02 3.39826000e+01 1.56253000e+00	N
atom  7.45431000e-02 3.17275000e+01 3.18029000e+00	N
atom  -1.02518000e-01 3.15133000e+01 -1.58468000e-01	N
atom  1.19473000e+00 3.93681000e+01 1.81067000e+00	N
atom  6.26530000e-01 3.65863000e+01 1.30781000e+00	N
atom  3.12525000e-01 3.82355000e+01 9.54096000e-01	Si
atom  1.62268000e+00 3.56547000e+01 3.60607000e+00	N
atom  1.51420000e+00 3.82424000e+01 4.47817000e+00	N
atom  -4.58037000e-01 3.16294000e+01 9.64005000e+00	N
atom  6.66090000e-02 3.10808000e+01 4.98447000e+00	Si
atom  9.53976000e-01 3.27149000e+01 5.53070000e+00	N
atom  1.08080000e+00 3.48387000e+01 7.77734000e+00	Si
atom  -8.51900000e-02 3.35584000e+01 7.60328000e+00	N
atom  8.03054000e-01 3.04550000e+01 6.54472000e+00	N
atom  1.97642000e+00 3.17709000e+01 6.62367000e+00	Si
atom  1.18547000e+00 3.21073000e+01 9.80030000e+00	Si
atom  -8.05318000e-02 3.60641000e+01 8.12870000e+00	N
atom  1.54827000e+00 3.52894000e+01 6.01974000e+00	N
atom  1.04454000e+00 3.91617000e+01 5.90862000e+00	Si
atom  -2.55702000e-01 3.86050000e+01 9.44672000e+00	N
atom  2.39336000e-01 3.33290000e+01 1.39688000e+01	Si
atom  1.53825000e+00 3.36105000e+01 1.04340000e+01	N
atom  -2.89879000e-01 3.46107000e+01 1.27611000e+01	N
atom  1.42201000e+00 3.45253000e+01 1.19409000e+01	Si
atom  -3.82056000e-01 3.17281000e+01 1.40491000e+01	N
atom  4.35240000e-01 3.02441000e+01 1.43100000e+01	Si
atom  1.83690000e+00 3.34185000e+01 1.32148000e+01	N
atom  -9.90304000e-03 3.94062000e+01 1.25204000e+01	Si
atom  -1.39522000e-01 3.63691000e+01 1.30873000e+01	Si
atom  1.43477000e+00 3.62419000e+01 1.22636000e+01	N
atom  1.52118000e+00 3.93242000e+01 1.18019000e+01	N
atom  1.30168000e+00 3.87080000e+01 1.01618000e+01	Si
atom  -7.36246000e-02 3.99328000e+01 1.41414000e+01	N
atom  4.05422000e-01 3.69854000e+01 1.46774000e+01	N
atom  1.53937000e+00 3.04220000e+01 1.56569000e+01	N
atom  1.47288000e+00 3.40778000e+01 1.66271000e+01	Si
atom  1.62287000e-01 3.40802000e+01 1.55251000e+01	N
atom  9.78841000e-01 3.27343000e+01 1.76368000e+01	N
atom  6.53937000e-01 3.26404000e+01 1.93472000e+01	Si
atom  1.53209000e+00 3.10287000e+01 1.72926000e+01	Si
atom  1.62936000e+00 3.58071000e+01 1.71087000e+01	N
atom  -1.17493000e-01 3.85406000e+01 1.52861000e+01	Si
atom  1.66686000e+00 3.69140000e+01 1.57848000e+01	Si
atom  1.15377000e+00 3.84619000e+01 1.64238000e+01	N
atom  1.80295000e+00 3.94108000e+01 1.77724000e+01	Si
atom  5.38671000e-01 3.95553000e+01 1.89721000e+01	N
atom  8.07590000e-01 3.67686000e+01 1.96996000e+01	N
atom  1.10485000e+00 3.40833000e+01 2.01695000e+01	N
atom  1.94008000e+00 3.16279000e+01 1.98552000e+01	N
atom  3.74656000e-01 4.01197000e+01 2.40338000e+01	N
atom  7.38665000e-01 3.54481000e+01 2.45463000e+01	N
atom  5.40415000e-01 3.55876000e+01 2.09411000e+01	Si
atom  3.86661000e-01 3.85616000e+01 2.33712000e+01	Si
atom  1.33365000e-01 3.87747000e+01 2.17104000e+01	N
atom  -5.14532000e-02 3.82281000e+01 2.00830000e+01	Si
atom  1.87576000e+00 3.54511000e+01 2.21058000e+01	N
atom  1.97677000e+00 3.77929000e+01 2.35296000e+01	N
atom  -2.23010000e-01 3.29681000e+01 2.92693000e+01	N
atom  6.52761000e-01 3.35644000e+01 2.78329000e+01	Si
atom  1.12660000e+00 3.17426000e+01 2.52150000e+01	N
atom  1.35288000e+00 3.50683000e+01 2.75166000e+01	N
atom  7.55951000e-01 3.62285000e+01 2.61125000e+01	Si
atom  1.18061000e+00 3.87592000e+01 2.82554000e+01	Si
atom  9.33993000e-01 3.79490000e+01 2.66984000e+01	N
atom  1.50448000e-01 3.77412000e+01 2.91889000e+01	N
atom  1.05358000e+00 3.27793000e+01 3.16274000e+01	N
atom  1.22923000e+00 3.22129000e+01 3.33259000e+01	Si
atom  1.29046000e-01 3.46494000e+01 3.38064000e+01	N
atom  1.40857000e+00 3.10570000e+01 3.10993000e+01	Si
atom  -1.51775000e-01 3.19129000e+01 3.42433000e+01	N
atom  1.70611000e+00 3.06169000e+01 3.27755000e+01	N
atom  3.73039000e-01 3.03551000e+01 2.98715000e+01	N
atom  -5.27984000e-01 3.33514000e+01 3.09280000e+01	Si
atom  -6.81538000e-01 3.50058000e+01 3.10754000e+01	N
atom  5.91754000e-01 3.52896000e+01 3.22600000e+01	Si
atom  -4.82816000e-02 3.79124000e+01 3.08101000e+01	Si
atom  9.44981000e-01 3.70581000e+01 3.18966000e+01	N
atom  3.81969000e-01 3.85631000e+01 3.43049000e+01	N
atom  3.94560000e-01 3.94350000e+01 3.14924000e+01	N
atom  1.40771000e+00 3.89430000e+01 3.29010000e+01	Si
atom  -6.35364000e-01 3.25164000e+01 3.57531000e+01	Si
atom  1.42821000e+00 3.43646000e+01 3.50087000e+01	Si
atom  9.37538000e-01 3.05219000e+01 3.69178000e+01	Si
atom  3.84964000e-01 3.38413000e+01 3.62862000e+01	N
atom  2.82236000e-01 3.43330000e+01 3.78884000e+01	Si
atom  1.35257000e+00 3.38392000e+01 3.90709000e+01	N
atom  2.10005000e+00 3.17217000e+01 3.66546000e+01	N
atom  1.13726000e+00 3.71378000e+01 3.83837000e+01	Si
atom  3.94182000e-01 3.85307000e+01 3.91360000e+01	N
atom  -1.13332000e-01 3.59485000e+01 3.82999000e+01	N
atom  5.95939000e-01 3.72311000e+01 3.54809000e+01	Si
atom  1.39171000e+00 3.78976000e+01 3.69040000e+01	N
atom  1.87154000e+00 3.60250000e+01 3.50351000e+01	N
atom  2.60014000e+00 1.66833000e+00 6.51413000e-01	N
atom  3.82723000e+00 8.97304000e-01 1.58979000e+00	Si
atom  3.49661000e+00 2.59522000e+00 4.66376000e+00	N
atom  3.15192000e+00 5.01390000e-01 3.24328000e+00	N
atom  2.03495000e+00 1.85523000e+00 4.11756000e+00	Si
atom  2.58050000e+00 9.85887000e+00 2.95807000e+00	N
atom  3.22300000e+00 7.07144000e+00 3.80225000e+00	N
atom  3.60608000e+00 8.45325000e+00 2.89575000e+00	Si
atom  4.09206000e+00 7.71360000e+00 1.34162000e+00	N
atom  2.31774000e+00 3.57225000e+00 7.28913000e+00	Si
atom  3.68304000e+00 4.56663000e+00 6.68543000e+00	N
atom  3.23839000e+00 2.10915000e+00 7.55603000e+00	N
atom  2.11423000e+00 8.69064000e-01 7.99240000e+00	Si
atom  3.25557000e+00 9.20799000e+00 8.26993000e+00	N
atom  4.08535000e+00 6.49084000e+00 8.77491000e+00	N
atom  2.71358000e+00 9.86296000e+00 6.71232000e+00	Si
atom  3.56674000e+00 6.21240000e+00 7.12529000e+00	Si
atom  4.26462000e+00 1.01271000e+01 5.95095000e+00	N
atom  3.54093000e+00 7.94944000e+00 9.46076000e+00	Si
atom  3.64810000e+00 1.24037000e+00 1.24911000e+01	N
atom  3.88768000e+00 3.87394000e+00 1.06211000e+01	N
atom  2.31213000e+00 9.97157000e-01 1.14157000e+01	Si
atom  3.91738000e+00 4.66575000e+00 1.35307000e+01	N
atom  2.24907000e+00 3.86876000e+00 1.04892000e+01	Si
atom  4.05692000e+00 7.42597000e-01 1.40503000e+01	Si
atom  3.04177000e+00 5.71268000e+00 1.24489000e+01	Si
atom  2.39501000e+00 7.09904000e+00 1.32874000e+01	N
atom  3.24527000e+00 8.64452000e+00 1.32940000e+01	Si
atom  2.37605000e+00 9.48413000e+00 1.20334000e+01	N
atom  4.33037000e+00 6.34765000e+00 1.14413000e+01	N
atom  3.36836000e+00 2.47155000e+00 1.66786000e+01	Si
atom  2.71369000e+00 3.86284000e+00 1.58897000e+01	N
atom  2.63004000e+00 9.51831000e-01 1.70930000e+01	N
atom  3.23584000e+00 4.57897000e+00 1.90976000e+01	Si
atom  4.01202000e+00 3.38645000e+00 1.80405000e+01	N
atom  4.06197000e+00 4.78830000e+00 1.52212000e+01	Si
atom  3.38392000e+00 9.16569000e+00 1.50355000e+01	N
atom  3.22000000e+00 9.36732000e+00 1.86059000e+01	Si
atom  2.62126000e+00 5.82982000e+00 1.81231000e+01	N
atom  3.36449000e+00 7.69982000e+00 1.60625000e+01	Si
atom  4.14078000e+00 8.49276000e+00 1.73857000e+01	N
atom  2.67174000e+00 4.11941000e+00 2.34004000e+01	Si
atom  3.62946000e+00 2.52784000e+00 2.13984000e+01	N
atom  3.87342000e+00 5.06438000e+00 2.06749000e+01	N
atom  2.32970000e+00 2.57152000e+00 2.40343000e+01	N
atom  4.14854000e+00 8.87799000e-01 2.14661000e+01	Si
atom  1.98492000e+00 2.90053000e+00 2.09438000e+01	Si
atom  2.31665000e+00 5.57329000e+00 2.43061000e+01	N
atom  3.69633000e+00 6.70863000e+00 2.12910000e+01	Si
atom  3.41394000e+00 9.25708000e+00 2.21169000e+01	N
atom  4.00336000e+00 6.17451000e+00 2.41450000e+01	Si
atom  2.05728000e+00 7.03147000e+00 2.14328000e+01	N
atom  1.95203000e+00 8.81636000e+00 2.13090000e+01	Si
atom  4.25841000e+00 8.84212000e+00 2.36105000e+01	Si
atom  4.05994000e+00 1.51274000e+00 2.92392000e+01	N
atom  2.91389000e+00 4.94223000e+00 2.76274000e+01	N
atom  2.43538000e+00 1.24534000e+00 2.68277000e+01	N
atom  2.58178000e+00 2.56691000e+00 2.57654000e+01	Si
atom  3.74668000e+00 5.15878000e-01 2.78777000e+01	Si
atom  4.09044000e+00 3.29027000e+00 2.59201000e+01	N
atom  2.54045000e+00 9.95860000e+00 2.59172000e+01	N
atom  3.88866000e+00 7.83136000e+00 2.50552000e+01	N
atom  2.84608000e+00 6.58626000e+00 2.81839000e+01	Si
atom  2.27127000e+00 8.30170000e+00 2.56547000e+01	Si
atom  3.07155000e+00 4.11767000e+00 3.05003000e+01	N
atom  3.49686000e+00 2.56174000e+00 3.36883000e+01	N
atom  3.95143000e+00 4.11191000e+00 3.40353000e+01	Si
atom  2.79775000e+00 2.60850000e+00 2.98464000e+01	Si
atom  2.11204000e+00 2.09622000e+00 3.27604000e+01	Si
atom  3.47408000e+00 9.95376000e-01 3.46988000e+01	Si
atom  4.35076000e+00 5.18224000e+00 3.27002000e+01	N
atom  2.11923000e+00 9.58849000e+00 3.02718000e+01	N
atom  2.87508000e+00 9.77451000e+00 3.32870000e+01	N
atom  3.47556000e+00 6.65579000e+00 3.29847000e+01	Si
atom  3.82767000e+00 7.95375000e+00 3.18180000e+01	N
atom  2.17978000e+00 7.98450000e+00 3.09457000e+01	Si
atom  2.43398000e+00 8.75024000e+00 3.45783000e+01	Si
atom  3.21363000e+00 7.23449000e+00 3.46838000e+01	N
atom  2.42337000e+00 6.74840000e+00 2.98397000e+01	N
atom  2.62806000e+00 4.76183000e+00 3.50092000e+01	N
atom  2.90196000e+00 2.46788000e+00 3.78239000e+01	N
atom  2.48240000e+00 2.94251000e+00 3.93711000e+01	Si
atom  2.54992000e+00 3.87369000e-01 3.61388000e+01	N
atom  3.84513000e+00 4.12014000e+00 3.97863000e+01	N
atom  4.31443000e+00 8.20051000e+00 3.95838000e+01	Si
atom  2.82379000e+00 6.15741000e+00 3.59518000e+01	Si
atom  3.91307000e+00 5.65948000e+00 3.89345000e+01	Si
atom  3.28067000e+00 8.44924000e+00 3.81913000e+01	N
atom  3.93361000e+00 5.71305000e+00 3.71786000e+01	N
atom  3.34251000e+00 9.95444000e+00 3.73772000e+01	Si
atom  2.35297000e+00 9.84005000e+00 3.59462000e+01	N
atom  2.30799000e+00 6.26880000e+00 3.94311000e+01	N
atom  2.63400000e+00 1.30865000e+01 1.51542000e+00	Si
atom  2.93586000e+00 1.44127000e+01 4.12064000e+00	N
atom  3.69434000e+00 1.45039000e+01 1.47358000e+00	N
atom  3.72423000e+00 1.18294000e+01 1.31599000e+00	N
atom  3.97266000e+00 1.09343000e+01 2.78557000e+00	Si
atom  3.28351000e+00 1.55438000e+01 2.75957000e+00	Si
atom  2.66677000e+00 1.79166000e+01 3.36583000e-01	N
atom  3.83905000e+00 1.93304000e+01 3.82090000e+00	N
atom  3.80960000e+00 1.77551000e+01 4.50296000e+00	Si
atom  3.36766000e+00 1.39336000e+01 7.42140000e+00	Si
atom  2.38844000e+00 1.05949000e+01 9.09193000e+00	Si
atom  4.06913000e+00 1.28804000e+01 6.26137000e+00	N
atom  2.03141000e+00 1.11543000e+01 7.53283000e+00	N
atom  2.53862000e+00 1.68528000e+01 9.67963000e+00	N
atom  2.27396000e+00 1.71302000e+01 5.04230000e+00	N
atom  3.51320000e+00 1.56503000e+01 6.97119000e+00	N
atom  2.43682000e+00 1.84245000e+01 7.61373000e+00	N
atom  2.21918000e+00 1.68248000e+01 6.86691000e+00	Si
atom  3.25502000e+00 1.99454000e+01 7.42382000e+00	Si
atom  2.93172000e+00 1.10752000e+01 1.19710000e+01	Si
atom  2.86462000e+00 1.48450000e+01 1.17715000e+01	N
atom  3.27763000e+00 1.14442000e+01 1.03154000e+01	N
atom  2.36782000e+00 1.41482000e+01 1.33839000e+01	Si
atom  4.13634000e+00 1.38197000e+01 1.37812000e+01	N
atom  4.21882000e+00 1.07497000e+01 1.31043000e+01	N
atom  3.37147000e+00 1.96116000e+01 1.42394000e+01	Si
atom  2.29730000e+00 1.84364000e+01 1.16739000e+01	Si
atom  3.93152000e+00 1.80174000e+01 1.14196000e+01	N
atom  4.25912000e+00 1.71205000e+01 1.00363000e+01	Si
atom  2.10518000e+00 1.60020000e+01 1.40056000e+01	N
atom  1.96196000e+00 1.94536000e+01 1.03276000e+01	N
atom  2.05603000e+00 1.94321000e+01 1.31034000e+01	N
atom  2.31905000e+00 1.06005000e+01 1.75513000e+01	N
atom  2.86170000e+00 1.22314000e+01 1.72132000e+01	Si
atom  3.30658000e+00 1.18062000e+01 1.55571000e+01	N
atom  4.02791000e+00 1.27008000e+01 1.84005000e+01	N
atom  4.19298000e+00 1.41559000e+01 1.93077000e+01	Si
atom  2.78962000e+00 1.52410000e+01 1.95274000e+01	N
atom  2.28755000e+00 1.03316000e+01 1.57609000e+01	Si
atom  2.42586000e+00 1.62826000e+01 1.81030000e+01	Si
atom  3.13640000e+00 1.64939000e+01 1.54121000e+01	Si
atom  3.51472000e+00 1.82832000e+01 1.53233000e+01	N
atom  3.83722000e+00 1.72191000e+01 1.77321000e+01	N
atom  2.75896000e+00 1.39835000e+01 2.45760000e+01	N
atom  3.72615000e+00 1.54636000e+01 2.44687000e+01	Si
atom  2.72624000e+00 1.67901000e+01 2.38204000e+01	N
atom  3.17544000e+00 1.85416000e+01 2.41474000e+01	Si
atom  3.26296000e+00 1.98156000e+01 2.28949000e+01	N
atom  3.37182000e+00 1.84022000e+01 2.04992000e+01	N
atom  4.11353000e+00 1.96862000e+01 2.13844000e+01	Si
atom  2.51907000e+00 1.34354000e+01 2.61719000e+01	Si
atom  3.96478000e+00 1.24428000e+01 2.65967000e+01	N
atom  3.94975000e+00 1.17417000e+01 2.94691000e+01	N
atom  4.11983000e+00 1.07161000e+01 2.60855000e+01	Si
atom  4.19103000e+00 1.45055000e+01 2.86942000e+01	N
atom  1.96976000e+00 1.48344000e+01 2.71358000e+01	N
atom  3.66583000e+00 2.00034000e+01 2.54338000e+01	N
atom  1.95222000e+00 2.01783000e+01 2.58399000e+01	Si
atom  3.46460000e+00 1.55941000e+01 2.75437000e+01	Si
atom  2.71282000e+00 1.67642000e+01 2.86114000e+01	N
atom  2.61241000e+00 1.21166000e+01 3.16437000e+01	N
atom  2.61549000e+00 1.40205000e+01 3.38006000e+01	N
atom  2.82592000e+00 1.50180000e+01 3.12694000e+01	N
atom  3.98125000e+00 1.50551000e+01 3.43383000e+01	Si
atom  2.08588000e+00 1.37006000e+01 3.21568000e+01	Si
atom  2.31235000e+00 1.12704000e+01 3.00519000e+01	Si
atom  3.36835000e+00 1.65750000e+01 3.35854000e+01	N
atom  3.34996000e+00 1.92672000e+01 3.32711000e+01	N
atom  2.32299000e+00 1.63387000e+01 3.21472000e+01	Si
atom  2.60472000e+00 1.77822000e+01 3.11190000e+01	N
atom  2.15698000e+00 1.92628000e+01 3.18763000e+01	Si
atom  3.70642000e+00 1.75386000e+01 2.98365000e+01	Si
atom  3.00395000e+00 1.11846000e+01 3.85850000e+01	N
atom  2.70695000e+00 1.42366000e+01 3.79484000e+01	N
atom  2.03355000e+00 1.26430000e+01 3.84866000e+01	Si
atom  2.29825000e+00 1.70278000e+01 3.72668000e+01	N
atom  4.15744000e+00 1.55501000e+01 3.60117000e+01	N
atom  3.94553000e+00 1.71219000e+01 3.66194000e+01	Si
atom  2.63355000e+00 2.21402000e+01 3.90694000e+00	N
atom  3.42288000e+00 2.37397000e+01 3.24680000e-01	Si
atom  2.22800000e+00 2.06854000e+01 7.25901000e-01	N
atom  3.59029000e+00 2.39611000e+01 1.97846000e+00	N
atom  3.95028000e+00 2.10157000e+01 5.49616000e-01	Si
atom  4.01498000e+00 2.27765000e+01 3.09511000e+00	Si
atom  2.58679000e+00 2.04551000e+01 4.28350000e+00	Si
atom  3.41772000e+00 2.72904000e+01 3.91574000e+00	Si
atom  4.10685000e+00 2.58423000e+01 4.58717000e+00	N
atom  3.85678000e+00 3.01754000e+01 4.72466000e+00	Si
atom  1.77403000e+00 2.63089000e+01 9.46466000e-01	N
atom  3.76916000e+00 3.03202000e+01 -1.50542000e-04	N
atom  2.71556000e+00 2.12375000e+01 8.53159000e+00	N
atom  3.51546000e+00 2.33051000e+01 8.39255000e+00	Si
atom  4.13765000e+00 2.46963000e+01 9.30091000e+00	N
atom  2.51332000e+00 2.03450000e+01 5.96026000e+00	N
atom  4.16247000e+00 2.39305000e+01 6.79511000e+00	N
atom  3.60953000e+00 2.62564000e+01 8.91794000e+00	Si
atom  3.73494000e+00 2.83051000e+01 6.92190000e+00	Si
atom  3.45937000e+00 2.53599000e+01 6.08864000e+00	Si
atom  2.68974000e+00 2.91913000e+01 7.97120000e+00	N
atom  3.82620000e+00 2.66097000e+01 7.21278000e+00	N
atom  3.17535000e+00 2.85723000e+01 5.17819000e+00	N
atom  3.11173000e+00 2.45396000e+01 1.41640000e+01	Si
atom  3.00917000e+00 2.09034000e+01 1.02091000e+01	Si
atom  2.48517000e+00 2.22950000e+01 1.10800000e+01	N
atom  2.07297000e+00 2.43395000e+01 1.28245000e+01	N
atom  3.86035000e+00 2.79334000e+01 1.13189000e+01	Si
atom  2.11283000e+00 2.79653000e+01 1.12104000e+01	N
atom  2.89005000e+00 3.01486000e+01 1.45695000e+01	Si
atom  3.96672000e+00 2.87443000e+01 1.46019000e+01	N
atom  2.99706000e+00 2.10736000e+01 1.50977000e+01	N
atom  3.33947000e+00 2.16352000e+01 1.77399000e+01	N
atom  2.23807000e+00 2.36667000e+01 1.53982000e+01	N
atom  2.27402000e+00 2.50713000e+01 1.94445000e+01	Si
atom  1.96476000e+00 2.42459000e+01 1.79327000e+01	N