lattice_vector  3.98588119e+01 0.00000000e+00 0.00000000e+00
lattice_vector  2.44064832e-15 3.98588119e+01 0.00000000e+00
lattice_vector  2.44064832e-15 2.44064832e-15 3.98588119e+01
atom  5.27251000e-01 2.67887000e+00 1.44064000e+00	N
atom  6.80327000e-01 4.69783000e+00 3.61092000e+00	N
atom  3.91831000e-01 4.43115000e+00 1.86385000e+00	Si
atom  8.28951000e-01 3.22027000e+00 4.60789000e+00	Si
atom  -4.45294000e-01 4.56897000e+00 -1.59987000e-01	N
atom  1.45401000e-01 8.47818000e+00 3.32852000e+00	Si
atom  1.38142000e+00 7.40220000e+00 2.73061000e+00	N
atom  1.81158000e+00 6.05877000e+00 3.71110000e+00	Si
atom  6.84748000e-01 9.04251000e+00 4.85278000e+00	N
atom  9.30575000e-01 7.22504000e+00 -1.05875000e-01	N
atom  1.09434000e+00 3.93143000e-01 8.09220000e+00	N
atom  1.03839000e+00 4.08089000e+00 6.20139000e+00	N
atom  1.72284000e+00 4.87014000e+00 9.05461000e+00	N
atom  -1.80164000e-01 8.56087000e-01 9.22575000e+00	Si
atom  7.46351000e-02 5.36481000e+00 9.06044000e+00	Si
atom  -1.35044000e-01 6.93393000e+00 9.78452000e+00	N
atom  1.42869000e+00 9.23550000e+00 8.88332000e+00	Si
atom  2.41025000e-01 8.38160000e+00 6.38061000e+00	Si
atom  -1.17482000e-01 9.75693000e+00 9.50010000e+00	N
atom  1.63030000e+00 8.17380000e+00 7.43754000e+00	N
atom  -3.71348000e-02 5.50203000e+00 5.74307000e+00	Si
atom  1.37480000e+00 6.49192000e+00 5.34654000e+00	N
atom  4.60658000e-01 1.42136000e+00 1.07078000e+01	N
atom  4.41096000e-03 2.92657000e+00 1.13254000e+01	Si
atom  1.48387000e+00 3.65385000e+00 1.17588000e+01	N
atom  1.35970000e+00 4.92604000e+00 1.29417000e+01	Si
atom  7.04384000e-01 4.29736000e+00 1.45183000e+01	N
atom  1.09088000e-01 1.90548000e+00 1.44520000e+01	N
atom  1.83041000e+00 5.14757000e-01 1.13388000e+01	Si
atom  1.06905000e+00 7.35390000e+00 1.09266000e+01	Si
atom  1.84422000e-02 8.19075000e+00 1.20391000e+01	N
atom  6.01318000e-01 7.09200000e+00 1.46943000e+01	N
atom  -2.51394000e-01 5.60030000e+00 1.25401000e+01	N
atom  -4.86002000e-01 7.17071000e+00 1.33434000e+01	Si
atom  1.44279000e+00 2.88372000e+00 1.51591000e+01	Si
atom  1.38146000e+00 1.17710000e+00 1.94279000e+01	N
atom  7.16875000e-01 4.39490000e+00 1.75731000e+01	Si
atom  1.16254000e+00 2.89184000e+00 1.68604000e+01	N
atom  1.12424000e+00 1.38162000e+00 1.77280000e+01	Si
atom  1.02854000e+00 4.19871000e+00 1.92719000e+01	N
atom  -4.03739000e-01 5.26270000e-01 1.73598000e+01	N
atom  1.24783000e+00 9.57215000e+00 1.97683000e+01	N
atom  -1.17364000e-01 8.08549000e+00 1.59808000e+01	Si
atom  5.06617000e-01 8.31293000e+00 1.87905000e+01	Si
atom  1.05916000e+00 8.49760000e+00 1.71720000e+01	N
atom  1.65716000e+00 5.74518000e+00 1.68734000e+01	N
atom  1.10882000e+00 6.80411000e+00 1.94337000e+01	N
atom  9.10255000e-01 3.76697000e+00 2.16968000e+01	N
atom  3.97520000e-01 2.15081000e+00 2.39325000e+01	N
atom  1.34584000e+00 2.76497000e+00 2.02910000e+01	Si
atom  -1.54608000e-01 5.48030000e-01 2.37609000e+01	Si
atom  -2.78892000e-01 3.44232000e+00 2.29059000e+01	Si
atom  -3.48000000e-01 4.28555000e-01 2.19577000e+01	N
atom  8.66467000e-01 5.44207000e+00 2.06355000e+01	Si
atom  8.46395000e-01 7.10025000e+00 2.41193000e+01	N
atom  1.49277000e+00 9.34282000e+00 2.25706000e+01	N
atom  -3.63766000e-01 9.80119000e+00 2.45691000e+01	N
atom  -3.63055000e-01 1.02404000e+01 1.99774000e+01	Si
atom  1.71543000e+00 2.60485000e+00 2.48814000e+01	Si
atom  1.06061000e+00 3.33836000e+00 2.62761000e+01	N
atom  5.74824000e-01 4.00511000e+00 2.88792000e+01	N
atom  -1.48174000e-01 1.50965000e+00 2.77657000e+01	N
atom  1.05261000e+00 2.71996000e+00 2.78969000e+01	Si
atom  -2.61013000e-01 4.42853000e+00 2.57705000e+01	Si
atom  2.40562000e-01 5.83120000e+00 2.66205000e+01	N
atom  -3.15261000e-01 9.64136000e+00 2.94520000e+01	N
atom  5.11431000e-01 7.01728000e+00 2.91773000e+01	N
atom  5.56591000e-01 8.42322000e+00 2.68296000e+01	N
atom  9.10210000e-01 5.57631000e+00 2.82339000e+01	Si
atom  1.19590000e+00 7.13791000e+00 2.58741000e+01	Si
atom  8.46506000e-01 9.83107000e+00 2.58413000e+01	Si
atom  -1.49788000e-01 8.31906000e+00 2.83384000e+01	Si
atom  1.06615000e-01 2.62397000e+00 3.12228000e+01	N
atom  9.69247000e-01 2.06509000e+00 3.26496000e+01	Si
atom  8.23701000e-01 3.17821000e+00 3.39386000e+01	N
atom  1.00288000e+00 3.94165000e+00 3.06103000e+01	Si
atom  9.40122000e-02 7.20516000e-01 3.33387000e+01	N
atom  4.08630000e-01 5.38532000e+00 3.13700000e+01	N
atom  1.11031000e+00 8.40431000e+00 3.15998000e+01	N
atom  1.06904000e+00 6.86845000e+00 3.08449000e+01	Si
atom  1.05133000e+00 9.79928000e+00 3.04417000e+01	Si
atom  -2.09471000e-01 7.56758000e+00 3.42354000e+01	N
atom  1.45335000e+00 7.25521000e+00 3.47764000e+01	Si
atom  8.03729000e-01 3.48291000e+00 3.89889000e+01	Si
atom  1.58142000e+00 4.57395000e+00 3.77844000e+01	N
atom  6.67999000e-01 6.47291000e-01 3.50427000e+01	Si
atom  -1.62081000e-01 2.06505000e+00 3.86835000e+01	N
atom  -2.05550000e-01 1.76771000e+00 3.59185000e+01	N
atom  -4.49252000e-01 6.23749000e+00 3.94143000e+01	Si
atom  4.92680000e-01 5.31220000e+00 3.67532000e+01	Si
atom  1.28683000e+00 9.77037000e+00 3.84003000e+01	N
atom  1.46691000e+00 8.28432000e+00 3.62198000e+01	N
atom  1.47549000e+00 5.61122000e+00 3.53946000e+01	N
atom  -2.45608000e-01 6.64290000e+00 3.76763000e+01	N
atom  1.11027000e+00 7.92946000e+00 3.80538000e+01	Si
atom  1.32582000e+00 1.41067000e+01 5.95492000e-01	N
atom  2.37905000e-01 1.15197000e+01 5.58972000e-01	N
atom  2.43605000e-01 1.10810000e+01 2.24317000e+00	Si
atom  -8.68301000e-02 1.32055000e+01 1.06160000e+00	Si
atom  1.57879000e+00 1.04806000e+01 4.64623000e+00	Si
atom  1.79141000e+00 1.07651000e+01 2.96183000e+00	N
atom  6.82105000e-01 1.56487000e+01 4.17607000e+00	Si
atom  3.60191000e-01 1.81850000e+01 9.78171000e-01	Si
atom  1.70766000e+00 1.90444000e+01 1.50953000e+00	N
atom  -6.03877000e-02 1.64794000e+01 9.24395000e-01	N
atom  1.47856000e+00 1.56975000e+01 1.31974000e+00	Si
atom  7.45866000e-01 2.00510000e+01 3.91980000e+00	N
atom  1.85798000e+00 1.54783000e+01 3.00322000e+00	N
atom  3.46001000e-01 1.41927000e+01 5.05992000e+00	N
atom  5.67190000e-01 1.17812000e+01 5.14250000e+00	N
atom  1.19027000e+00 1.22700000e+01 8.56291000e+00	Si
atom  1.55186000e+00 1.31630000e+01 5.66977000e+00	Si
atom  1.39240000e+00 1.93179000e+01 9.42312000e+00	N
atom  9.95710000e-01 1.68627000e+01 5.34694000e+00	N
atom  1.32108000e+00 1.63312000e+01 9.16519000e+00	N
atom  1.57983000e+00 1.93602000e+01 6.47186000e+00	N
atom  4.46073000e-01 1.78406000e+01 9.24716000e+00	Si
atom  3.56237000e-01 1.08708000e+01 1.20694000e+01	N
atom  -7.88347000e-02 1.21204000e+01 1.45374000e+01	N
atom  -1.06249000e-01 1.47874000e+01 1.44028000e+01	N
atom  4.90148000e-01 1.50895000e+01 1.00034000e+01	Si
atom  1.17646000e+00 1.34851000e+01 9.83174000e+00	N
atom  4.32423000e-01 1.53781000e+01 1.17921000e+01	N
atom  1.49816000e+00 1.82771000e+01 1.43967000e+01	N
atom  8.38326000e-01 1.84845000e+01 1.28226000e+01	Si
atom  1.38186000e+00 2.01390000e+01 1.23522000e+01	N
atom  -4.35862000e-02 1.32885000e+01 1.69190000e+01	N
atom  1.40648000e+00 1.10869000e+01 1.67033000e+01	N
atom  7.41447000e-01 1.07255000e+01 1.51723000e+01	Si
atom  5.11248000e-01 1.34839000e+01 1.53352000e+01	Si
atom  7.36589000e-01 1.20982000e+01 1.79344000e+01	Si
atom  3.86439000e-01 1.49389000e+01 1.90050000e+01	N
atom  1.84863000e+00 1.41865000e+01 1.96977000e+01	Si
atom  1.58252000e+00 1.73001000e+01 1.94866000e+01	N
atom  7.28965000e-01 1.90203000e+01 1.67739000e+01	N
atom  7.34547000e-01 1.75707000e+01 1.58890000e+01	Si
atom  5.02374000e-02 1.65588000e+01 1.95709000e+01	Si
atom  -2.30895000e-01 1.90682000e+01 1.82071000e+01	Si
atom  2.15949000e-01 2.01816000e+01 1.94482000e+01	N
atom  9.31126000e-01 1.21293000e+01 2.31560000e+01	N
atom  1.95086000e-01 1.34888000e+01 2.38990000e+01	Si
atom  1.62523000e+00 1.44608000e+01 2.41823000e+01	N
atom  3.06223000e-01 1.05327000e+01 2.29913000e+01	Si
atom  1.40254000e+00 1.63266000e+01 2.20293000e+01	N
atom  5.48839000e-01 1.86777000e+01 2.38099000e+01	Si
atom  9.04844000e-01 1.87871000e+01 2.17926000e+01	N
atom  -2.94821000e-01 1.62028000e+01 2.23325000e+01	Si
atom  -3.63756000e-02 2.02654000e+01 2.37364000e+01	N
atom  1.36113000e+00 1.12904000e+01 2.66403000e+01	N
atom  3.61532000e-01 1.27396000e+01 2.67012000e+01	Si
atom  1.25290000e+00 1.51618000e+01 2.91729000e+01	N
atom  1.86514000e+00 1.36982000e+01 2.67214000e+01	N
atom  8.28596000e-01 1.75840000e+01 2.81741000e+01	N
atom  1.63361000e+00 1.78647000e+01 2.65869000e+01	Si
atom  2.40565000e-01 1.83560000e+01 2.57267000e+01	N
atom  1.05401000e+00 1.10064000e+01 3.34105000e+01	Si
atom  1.30094000e+00 1.10793000e+01 3.16223000e+01	N
atom  1.44765000e+00 1.54087000e+01 3.20349000e+01	Si
atom  7.90409000e-01 1.96290000e+01 3.14293000e+01	N
atom  3.38916000e-01 1.71359000e+01 3.39173000e+01	Si
atom  -7.48402000e-02 1.61494000e+01 3.26025000e+01	N
atom  1.96722000e+00 1.69533000e+01 3.11219000e+01	N
atom  8.16507000e-01 1.42121000e+01 3.55061000e+01	N
atom  7.35840000e-01 1.13279000e+01 3.87921000e+01	Si
atom  9.28174000e-01 1.11787000e+01 3.58061000e+01	N
atom  1.79423000e+00 1.41294000e+01 3.87230000e+01	Si
atom  3.59846000e-01 1.51266000e+01 3.81653000e+01	N
atom  5.94874000e-01 1.98979000e+01 3.58164000e+01	N
atom  -3.96188000e-01 1.85260000e+01 3.57461000e+01	Si
atom  4.46471000e-01 1.69821000e+01 3.57209000e+01	N
atom  1.47481000e-01 1.54095000e+01 3.64317000e+01	Si
atom  2.38532000e-01 1.87861000e+01 3.92497000e+01	N
atom  1.31965000e+00 2.37231000e+01 3.42129000e+00	Si
atom  6.85751000e-01 2.24039000e+01 2.56037000e+00	N
atom  1.14346000e+00 2.07051000e+01 2.29110000e+00	Si
atom  7.04275000e-01 2.50414000e+01 2.60359000e+00	N
atom  -3.85019000e-01 2.07130000e+01 1.23276000e+00	N
atom  7.43129000e-01 2.99644000e+01 1.87305000e+00	Si
atom  5.59035000e-01 2.62764000e+01 4.14880000e-01	N
atom  4.01924000e-01 2.73880000e+01 4.61035000e+00	N
atom  1.88288000e+00 2.87298000e+01 1.31879000e+00	N
atom  1.83036000e+00 2.53384000e+01 1.21668000e+00	Si
atom  1.46640000e+00 2.77058000e+01 -4.24101000e-02	Si
atom  5.91599000e-01 2.35183000e+01 4.99622000e+00	N
atom  4.44437000e-01 2.48216000e+01 8.88207000e+00	Si
atom  1.32312000e+00 2.40818000e+01 6.37295000e+00	Si
atom  4.63729000e-01 2.35485000e+01 7.76606000e+00	N
atom  -3.64911000e-01 2.08183000e+01 7.86875000e+00	N
atom  1.33523000e+00 2.01388000e+01 7.93030000e+00	Si
atom  1.16968000e+00 2.57542000e+01 6.41662000e+00	N
atom  -3.58361000e-01 2.63706000e+01 5.76834000e+00	Si
atom  -1.02789000e-02 3.00550000e+01 9.17041000e+00	Si
atom  1.94229000e+00 2.57032000e+01 8.91214000e+00	N
atom  1.20048000e+00 2.13150000e+01 1.35895000e+01	Si
atom  4.78855000e-01 2.45662000e+01 1.06903000e+01	N
atom  4.32622000e-01 2.30647000e+01 1.14750000e+01	Si
atom  7.71819000e-01 2.17420000e+01 1.03940000e+01	N
atom  1.52275000e+00 2.28305000e+01 1.28564000e+01	N
atom  1.91149000e+00 2.04711000e+01 1.07302000e+01	Si
atom  -2.92312000e-01 2.11270000e+01 1.44789000e+01	N
atom  1.66242000e+00 2.71872000e+01 1.11730000e+01	N
atom  1.11138000e+00 2.93121000e+01 1.42542000e+01	Si
atom  2.58989000e-02 2.82016000e+01 1.33311000e+01	N
atom  8.56546000e-01 2.94068000e+01 1.05451000e+01	N
atom  1.28504000e-01 2.82184000e+01 1.16374000e+01	Si
atom  1.90669000e+00 2.55852000e+01 1.06698000e+01	Si
atom  1.49240000e+00 2.46191000e+01 1.53097000e+01	Si
atom  2.71249000e-01 2.18471000e+01 1.87240000e+01	Si
atom  5.57819000e-01 2.17459000e+01 1.70695000e+01	N
atom  -1.49634000e-01 2.37815000e+01 1.51482000e+01	N
atom  1.61807000e+00 2.04830000e+01 1.64711000e+01	Si
atom  1.15026000e+00 2.30395000e+01 1.95550000e+01	N
atom  9.32074000e-01 2.57901000e+01 1.94740000e+01	N
atom  1.29206000e+00 2.91456000e+01 1.74739000e+01	Si
atom  6.73358000e-01 2.87553000e+01 1.58502000e+01	N
atom  1.10205000e-01 2.59466000e+01 1.79264000e+01	Si
atom  1.30630000e+00 2.57040000e+01 1.65991000e+01	N
atom  5.49090000e-02 2.99055000e+01 1.84211000e+01	N
atom  1.20775000e+00 2.15496000e+01 2.36306000e+01	Si
atom  1.03119000e+00 2.44026000e+01 2.05704000e+01	Si
atom  6.13314000e-01 2.31514000e+01 2.37558000e+01	N
atom  1.72732000e+00 2.12655000e+01 2.19996000e+01	N
atom  1.72865000e+00 2.46005000e+01 2.36157000e+01	Si
atom  5.13977000e-01 2.03256000e+01 2.12037000e+01	Si
atom  4.15493000e-01 2.56307000e+01 2.42265000e+01	N
atom  4.96351000e-01 2.83440000e+01 2.31056000e+01	N
atom  -1.71631000e-01 2.93555000e+01 2.17871000e+01	Si
atom  1.82359000e+00 2.82356000e+01 2.07546000e+01	N
atom  -4.58211000e-01 2.70440000e+01 2.37973000e+01	Si
atom  1.11010000e+00 2.19817000e+01 2.82441000e+01	N
atom  1.98154000e+00 3.00463000e+01 2.90285000e+01	Si
atom  4.84666000e-01 3.02364000e+01 2.80492000e+01	N
atom  -3.92891000e-01 2.57865000e+01 2.73644000e+01	N
atom  9.81827000e-01 2.54643000e+01 2.83603000e+01	Si
atom  1.76585000e+00 2.69761000e+01 2.86656000e+01	N
atom  7.61947000e-01 3.00747000e+01 2.62702000e+01	Si
atom  7.20769000e-01 2.82344000e+01 2.62863000e+01	N
atom  1.43579000e-01 2.44713000e+01 3.25707000e+01	N
atom  7.87186000e-01 2.23061000e+01 3.08823000e+01	N
atom  1.46752000e+00 2.45037000e+01 3.36824000e+01	Si
atom  1.05227000e+00 2.10633000e+01 3.22947000e+01	Si
atom  4.78816000e-01 2.48678000e+01 2.99248000e+01	N
atom  1.67170000e+00 2.30452000e+01 3.46691000e+01	N
atom  -4.20450000e-01 2.14640000e+01 3.32389000e+01	N
atom  1.13847000e+00 2.09255000e+01 2.97049000e+01	Si
atom  1.65621000e+00 2.90246000e+01 3.03870000e+01	N
atom  1.36897000e+00 2.84703000e+01 3.33839000e+01	N
atom  1.37357000e+00 2.95694000e+01 3.20628000e+01	Si
atom  2.97484000e-01 2.57954000e+01 3.14216000e+01	Si
atom  4.37859000e-01 2.76156000e+01 3.45925000e+01	Si
atom  1.86256000e+00 2.66066000e+01 3.15093000e+01	N
atom  -2.80361000e-01 3.01054000e+01 3.21637000e+01	N
atom  1.69685000e+00 2.60883000e+01 3.42991000e+01	N
atom  5.03534000e-01 2.15129000e+01 3.48634000e+01	Si
atom  1.56425000e+00 2.27172000e+01 3.76035000e+01	N
atom  -1.72725000e-01 2.24812000e+01 3.74953000e+01	Si
atom  6.52724000e-01 2.03880000e+01 3.96484000e+01	Si
atom  9.12529000e-01 2.60841000e+01 3.67597000e+01	N
atom  5.38637000e-01 2.86870000e+01 3.86799000e+01	N
atom  2.85408000e-01 2.75934000e+01 3.73689000e+01	Si
atom  3.38725000e-01 2.86281000e+01 3.60155000e+01	N
atom  -1.74402000e-01 3.02397000e+01 3.64075000e+01	Si
atom  3.71856000e-01 3.25601000e+01 3.46451000e+00	Si
atom  1.37357000e+00 3.11510000e+01 3.03282000e+00	N
atom  1.28741000e+00 3.32659000e+01 1.13907000e+00	N
atom  1.03230000e+00 3.42476000e+01 3.63438000e+00	N
atom  2.87322000e-01 3.06219000e+01 3.02049000e-01	N
atom  -3.85355000e-01 3.34309000e+01 8.61382000e-01	Si
atom  5.40153000e-01 3.71072000e+01 3.82060000e+00	N
atom  1.41480000e+00 3.93942000e+01 1.10112000e+00	Si
atom  7.98682000e-01 3.88912000e+01 3.97487000e+00	Si
atom  8.60127000e-01 3.55771000e+01 4.65034000e+00	Si
atom  1.59044000e+00 3.76748000e+01 1.12683000e+00	N
atom  -2.55035000e-01 3.99117000e+01 9.37412000e-01	N
atom  1.82523000e+00 3.96908000e+01 2.77715000e+00	N
atom  -2.63430000e-02 3.22725000e+01 5.11873000e+00	N
atom  5.01787000e-01 3.09523000e+01 6.08824000e+00	Si
atom  -5.65635000e-02 3.50630000e+01 6.14487000e+00	N
atom  1.71709000e+00 3.48579000e+01 6.91890000e+00	Si
atom  2.08893000e-01 3.39593000e+01 9.75940000e+00	N
atom  9.37630000e-01 3.03463000e+01 7.75520000e+00	N
atom  1.62825000e+00 3.93021000e+01 5.49155000e+00	N
atom  2.89806000e-01 3.55021000e+01 9.18636000e+00	Si
atom  3.98454000e-01 3.95385000e+01 6.65205000e+00	Si
atom  -2.92545000e-01 3.80426000e+01 7.07647000e+00	N
atom  1.85959000e+00 3.56437000e+01 8.42531000e+00	N
atom  7.04572000e-01 3.24977000e+01 1.38577000e+01	Si
atom  1.28570000e+00 3.31811000e+01 1.08967000e+01	Si
atom  4.68524000e-01 3.22418000e+01 1.21254000e+01	N
atom  1.30758000e+00 3.09884000e+01 1.44749000e+01	N
atom  1.81090000e+00 3.38570000e+01 1.39281000e+01	N
atom  1.85732000e+00 3.52742000e+01 1.29033000e+01	Si
atom  1.34378000e+00 3.74149000e+01 1.14101000e+01	Si
atom  2.35217000e-01 3.74570000e+01 1.40387000e+01	Si
atom  4.64548000e-01 3.64320000e+01 1.25690000e+01	N
atom  7.21521000e-01 3.90033000e+01 1.19324000e+01	N
atom  4.57260000e-01 3.90139000e+01 1.47111000e+01	N
atom  3.90788000e-01 3.70853000e+01 9.93451000e+00	N
atom  2.54896000e-01 4.02453000e+01 1.35058000e+01	Si
atom  1.87083000e+00 3.15501000e+01 1.61736000e+01	Si
atom  6.52412000e-01 3.26771000e+01 1.66163000e+01	N
atom  1.08868000e+00 3.37537000e+01 1.79877000e+01	Si
atom  3.80651000e-01 3.26972000e+01 1.91653000e+01	N
atom  -1.81830000e-01 3.11683000e+01 1.96014000e+01	Si
atom  2.49821000e-01 3.52264000e+01 1.77463000e+01	N
atom  1.01684000e+00 3.65059000e+01 1.51129000e+01	N
atom  1.27105000e+00 3.80705000e+01 1.71453000e+01	N
atom  3.89817000e-02 3.91230000e+01 1.63634000e+01	Si
atom  3.78513000e-01 3.66476000e+01 1.67616000e+01	Si
atom  7.99103000e-02 3.46607000e+01 2.13320000e+01	Si
atom  1.37756000e+00 3.23924000e+01 2.16418000e+01	Si
atom  1.40956000e+00 3.25088000e+01 2.34124000e+01	N
atom  -1.81349000e-01 3.32872000e+01 2.37059000e+01	Si
atom  8.13733000e-01 3.05991000e+01 2.09924000e+01	N
atom  -6.60333000e-02 3.50480000e+01 2.31215000e+01	N
atom  1.73142000e+00 3.41826000e+01 2.10711000e+01	N
atom  -2.64706000e-01 3.29331000e+01 2.17898000e+01	N
atom  4.16043000e-01 3.64251000e+01 2.08004000e+01	N
atom  9.27382000e-01 3.62548000e+01 2.40074000e+01	Si
atom  4.10510000e-01 3.98288000e+01 2.04803000e+01	Si
atom  1.01053000e+00 3.93236000e+01 2.47029000e+01	N
atom  1.86518000e+00 3.89032000e+01 2.07236000e+01	N
atom  2.12995000e-02 3.37025000e+01 2.55203000e+01	N
atom  1.46223000e+00 3.43137000e+01 2.61605000e+01	Si
atom  3.22134000e-01 3.42204000e+01 2.86302000e+01	Si
atom  1.79170000e+00 3.37356000e+01 2.78350000e+01	N
atom  1.54563000e+00 3.91772000e+01 2.88098000e+01	N
atom  -3.46708000e-01 3.81995000e+01 2.69763000e+01	N
atom  1.69705000e+00 3.59131000e+01 2.55285000e+01	N
atom  2.29719000e-02 3.96388000e+01 2.80755000e+01	Si
atom  8.38791000e-01 3.47083000e+01 3.02207000e+01	N
atom  -2.41464000e-01 3.51206000e+01 3.45492000e+01	N
atom  6.43873000e-02 3.73951000e+01 3.06437000e+01	N
atom  1.26463000e-01 3.58252000e+01 3.13243000e+01	Si
atom  1.53485000e+00 3.58053000e+01 3.23972000e+01	N
atom  1.67988000e+00 3.81469000e+01 3.02643000e+01	Si
atom  1.50183000e+00 3.57440000e+01 3.42861000e+01	Si
atom  1.40321000e+00 3.24620000e+01 3.48151000e+01	N
atom  1.28026000e+00 3.37763000e+01 3.71951000e+01	N
atom  1.08432000e+00 3.10338000e+01 3.72038000e+01	N
atom  1.32308000e+00 3.02873000e+01 3.87204000e+01	Si
atom  1.99738000e+00 3.23359000e+01 3.65261000e+01	Si
atom  -2.25077000e-01 3.61654000e+01 3.92936000e+01	Si
atom  2.79833000e-01 3.89130000e+01 3.55499000e+01	N
atom  1.15815000e+00 3.63403000e+01 3.61617000e+01	N
atom  1.77402000e+00 3.79622000e+01 3.57921000e+01	Si
atom  1.45271000e+00 3.59830000e+01 3.89262000e+01	N
atom  3.31887000e+00 1.78593000e+00 1.93133000e+00	N
atom  2.83775000e+00 1.05345000e+00 3.43349000e+00	Si
atom  2.35607000e+00 2.53168000e+00 4.22028000e+00	N
atom  3.81037000e+00 3.60271000e+00 4.34837000e+00	Si
atom  2.20938000e+00 2.85465000e+00 1.20488000e+00	Si
atom  3.89529000e+00 6.24916000e-01 8.08700000e-01	Si
atom  2.12436000e+00 4.58669000e+00 1.45461000e+00	N
atom  3.50459000e+00 5.24800000e+00 3.60119000e+00	N
atom  3.67664000e+00 5.29419000e+00 1.86331000e+00	Si
atom  3.49555000e+00 6.88473000e+00 1.29207000e+00	N
atom  2.61878000e+00 9.31213000e+00 8.24546000e-01	N
atom  4.28494000e+00 9.39008000e+00 2.77651000e+00	N
atom  1.95840000e+00 7.64514000e+00 1.12717000e+00	Si
atom  2.96288000e+00 2.78282000e+00 8.30871000e+00	N
atom  2.68902000e+00 9.92462000e-01 8.43456000e+00	Si
atom  2.22820000e+00 4.17226000e+00 7.52231000e+00	Si
atom  3.69395000e+00 5.12070000e-01 7.06777000e+00	N
atom  3.31332000e+00 5.52407000e+00 6.96913000e+00	N
atom  3.75633000e+00 7.59669000e+00 5.18180000e+00	N
atom  2.66772000e+00 7.03908000e+00 6.39116000e+00	Si
atom  4.20832000e+00 9.21985000e+00 5.42424000e+00	Si
atom  3.55031000e+00 1.63289000e+00 1.36500000e+01	Si
atom  2.44157000e+00 4.54619000e+00 1.05956000e+01	Si
atom  3.98542000e+00 4.54711000e+00 1.42611000e+01	Si
atom  4.05098000e+00 3.95351000e+00 1.04988000e+01	N
atom  3.06348000e+00 3.07235000e+00 1.44486000e+01	N
atom  2.12463000e+00 8.94829000e-01 1.30049000e+01	N
atom  2.77735000e+00 5.73263000e+00 1.38065000e+01	N
atom  3.58643000e+00 8.95683000e+00 1.10788000e+01	Si
atom  3.45889000e+00 6.80251000e+00 1.24863000e+01	Si
atom  3.24261000e+00 8.51015000e+00 1.28885000e+01	N
atom  3.38053000e+00 9.23797000e+00 1.44783000e+01	Si
atom  2.11773000e+00 6.04725000e+00 1.14338000e+01	N
atom  2.18863000e+00 8.44842000e+00 1.01746000e+01	N
atom  4.27700000e+00 1.28995000e+00 1.66216000e+01	Si
atom  2.50675000e+00 6.78959000e-01 1.69624000e+01	N
atom  4.37762000e+00 8.91383000e+00 1.94268000e+01	Si
atom  2.39204000e+00 6.41175000e+00 1.83641000e+01	Si
atom  2.06529000e+00 6.34723000e+00 1.52362000e+01	Si
atom  3.77219000e+00 5.38899000e+00 1.86012000e+01	N
atom  3.46024000e+00 7.83329000e+00 1.82622000e+01	N
atom  3.68943000e+00 1.00739000e+01 1.63530000e+01	N
atom  3.16944000e+00 7.78230000e+00 1.54466000e+01	N
atom  2.75005000e+00 8.75900000e+00 1.69859000e+01	Si
atom  2.95312000e+00 2.81121000e+00 2.09034000e+01	N
atom  2.71286000e+00 4.03713000e+00 2.21280000e+01	Si
atom  2.55366000e+00 3.80895000e+00 2.38572000e+01	N
atom  2.10912000e+00 8.23318000e+00 2.37285000e+01	Si
atom  2.46032000e+00 5.76163000e+00 2.14673000e+01	N
atom  3.53683000e+00 7.34881000e+00 2.33348000e+01	N
atom  3.61294000e+00 8.43963000e+00 2.08915000e+01	N
atom  3.78991000e+00 6.85837000e+00 2.16473000e+01	Si
atom  2.37115000e+00 9.57131000e+00 2.11048000e+01	Si
atom  4.14398000e+00 6.78025000e+00 2.48254000e+01	Si
atom  3.70992000e+00 2.99208000e+00 2.93526000e+01	Si
atom  2.67726000e+00 1.26745000e+00 2.55292000e+01	N
atom  3.57770000e+00 2.13411000e+00 2.67081000e+01	Si
atom  2.69318000e+00 2.33725000e+00 2.81425000e+01	N
atom  3.82469000e+00 3.79289000e+00 2.61987000e+01	N
atom  3.65738000e+00 5.37831000e+00 2.69667000e+01	Si
atom  2.82577000e+00 6.48884000e+00 2.59012000e+01	N
atom  4.07596000e+00 9.42548000e+00 2.55566000e+01	Si
atom  3.71700000e+00 5.83400000e+00 2.96218000e+01	Si
atom  2.62746000e+00 5.56810000e+00 2.83238000e+01	N
atom  2.40828000e+00 9.13570000e+00 2.51374000e+01	N
atom  4.01698000e+00 9.01886000e+00 2.89360000e+01	Si
atom  2.39988000e+00 9.31549000e+00 2.94014000e+01	N
atom  2.69000000e+00 3.60136000e+00 3.06624000e+01	N
atom  3.02725000e+00 4.40798000e+00 3.31758000e+01	N
atom  2.64639000e+00 1.56813000e+00 3.24477000e+01	N
atom  3.51043000e+00 2.99843000e+00 3.20537000e+01	Si
atom  2.09888000e+00 4.14451000e+00 3.45348000e+01	Si
atom  2.73820000e+00 6.36188000e+00 3.09629000e+01	N
atom  3.32111000e+00 5.92454000e+00 3.25409000e+01	Si
atom  2.63603000e+00 7.17155000e+00 3.35175000e+01	N
atom  2.52810000e+00 8.62181000e+00 3.26810000e+01	Si
atom  4.00634000e+00 8.97603000e+00 3.18771000e+01	N
atom  1.97543000e+00 9.61596000e+00 3.40029000e+01	N
atom  2.42009000e+00 6.42358000e-01 3.47756000e+01	N
atom  2.37672000e+00 2.76985000e+00 3.93906000e+01	N
atom  3.83438000e+00 2.38337000e+00 3.86244000e+01	Si
atom  3.64143000e+00 1.25975000e+00 3.73481000e+01	N
atom  2.99642000e+00 3.33470000e+00 3.57565000e+01	N
atom  3.47976000e+00 1.68146000e+00 3.57025000e+01	Si
atom  3.13668000e+00 4.53367000e+00 3.70125000e+01	Si
atom  2.96046000e+00 7.77557000e+00 3.82784000e+01	N
atom  2.04490000e+00 9.84416000e+00 3.57146000e+01	Si
atom  2.87148000e+00 9.35793000e+00 3.90132000e+01	Si
atom  4.12716000e+00 1.03469000e+01 3.84901000e+01	N
atom  3.96351000e+00 1.17379000e+01 1.09446000e+00	N
atom  3.40397000e+00 1.48037000e+01 3.62378000e+00	Si
atom  3.16956000e+00 1.04910000e+01 1.98672000e+00	Si
atom  3.06630000e+00 1.80241000e+01 1.34774000e+00	Si
atom  2.72203000e+00 1.66269000e+01 4.29553000e-01	N
atom  4.14155000e+00 1.91615000e+01 5.62152000e-01	N
atom  4.02712000e+00 1.60091000e+01 4.81614000e+00	N
atom  3.08589000e+00 1.86210000e+01 4.69660000e+00	N
atom  3.10920000e+00 1.35057000e+01 4.84280000e+00	N
atom  3.47393000e+00 1.33192000e+01 8.07961000e+00	Si
atom  3.37791000e+00 1.06770000e+01 7.24054000e+00	Si
atom  3.82111000e+00 1.49193000e+01 8.09885000e+00	N
atom  3.65094000e+00 1.27115000e+01 9.69390000e+00	N
atom  3.06811000e+00 1.05499000e+01 5.41022000e+00	N
atom  2.06481000e+00 1.07603000e+01 8.30769000e+00	N
atom  1.90249000e+00 1.31759000e+01 7.28278000e+00	N
atom  4.13067000e+00 1.70935000e+01 9.81180000e+00	N
atom  2.23980000e+00 1.78120000e+01 6.00079000e+00	Si
atom  3.02674000e+00 1.63524000e+01 8.68214000e+00	Si
atom  2.10038000e+00 2.01263000e+01 5.03405000e+00	Si
atom  3.29422000e+00 1.71223000e+01 7.14900000e+00	N
atom  3.06769000e+00 1.37826000e+01 1.37846000e+01	Si
atom  2.54319000e+00 1.33498000e+01 1.08098000e+01	Si
atom  3.25015000e+00 1.07340000e+01 1.15689000e+01	N
atom  3.12346000e+00 1.49908000e+01 1.11055000e+01	N
atom  2.26323000e+00 1.29280000e+01 1.24914000e+01	N
atom  2.23360000e+00 1.06685000e+01 1.42552000e+01	N
atom  2.02049000e+00 1.12349000e+01 1.26123000e+01	Si
atom  2.74915000e+00 1.54732000e+01 1.37506000e+01	N
atom  3.07575000e+00 1.91803000e+01 1.43770000e+01	Si
atom  4.13401000e+00 1.77831000e+01 1.47035000e+01	N
atom  4.20256000e+00 1.96637000e+01 1.31229000e+01	N
atom  2.04977000e+00 1.58698000e+01 1.21246000e+01	Si
atom  1.92137000e+00 1.75490000e+01 1.19559000e+01	N
atom  2.85993000e+00 1.17237000e+01 1.59397000e+01	Si
atom  2.24123000e+00 1.31928000e+01 1.51962000e+01	N
atom  3.41246000e+00 1.17843000e+01 1.95538000e+01	Si
atom  3.13581000e+00 1.50888000e+01 1.89284000e+01	N
atom  4.21880000e+00 1.24914000e+01 1.68272000e+01	N
atom  2.05106000e+00 1.25805000e+01 1.89584000e+01	N
atom  4.36694000e+00 1.04773000e+01 1.88092000e+01	N
atom  3.89213000e+00 1.93269000e+01 1.86535000e+01	Si
atom  2.58641000e+00 1.66507000e+01 1.82014000e+01	Si
atom  3.04680000e+00 2.01320000e+01 1.72870000e+01	N
atom  3.19251000e+00 1.64332000e+01 1.52102000e+01	Si
atom  2.06797000e+00 1.66665000e+01 1.65898000e+01	N
atom  4.07268000e+00 1.76356000e+01 1.85361000e+01	N
atom  3.85074000e+00 1.29753000e+01 2.33725000e+01	N
atom  2.97668000e+00 1.12250000e+01 2.11761000e+01	N
atom  2.51979000e+00 1.24660000e+01 2.23245000e+01	Si
atom  2.30357000e+00 1.50114000e+01 2.26491000e+01	Si
atom  2.04858000e+00 1.38208000e+01 2.14062000e+01	N
atom  3.71085000e+00 1.57276000e+01 2.32746000e+01	N
atom  3.50921000e+00 1.74665000e+01 2.36358000e+01	Si
atom  3.68991000e+00 1.79535000e+01 2.20036000e+01	N
atom  2.36168000e+00 1.86061000e+01 2.41962000e+01	N
atom  3.22471000e+00 1.98558000e+01 2.01668000e+01	N
atom  2.18196000e+00 1.77483000e+01 2.11365000e+01	Si
atom  2.55173000e+00 1.25523000e+01 2.90448000e+01	N
atom  2.56397000e+00 1.47803000e+01 2.55697000e+01	Si
atom  2.73915000e+00 1.23344000e+01 2.73472000e+01	Si
atom  2.53832000e+00 1.41217000e+01 2.97112000e+01	Si
atom  3.96453000e+00 1.50773000e+01 2.96138000e+01	N
atom  2.57401000e+00 1.64614000e+01 2.60573000e+01	N
atom  3.52705000e+00 1.93766000e+01 2.82603000e+01	Si
atom  3.17503000e+00 1.98614000e+01 2.51759000e+01	Si
atom  2.69162000e+00 1.92249000e+01 2.66995000e+01	N
atom  3.40498000e+00 1.76442000e+01 2.87843000e+01	N
atom  1.89361000e+00 1.67955000e+01 2.93266000e+01	Si
atom  2.50367000e+00 1.23314000e+01 3.18877000e+01	Si
atom  2.27284000e+00 1.22523000e+01 3.36526000e+01	N
atom  4.16030000e+00 1.18575000e+01 3.17154000e+01	N
atom  2.17066000e+00 1.37765000e+01 3.46276000e+01	Si
atom  2.29522000e+00 1.52752000e+01 3.36170000e+01	N
atom  2.05016000e+00 1.39087000e+01 3.13317000e+01	N
atom  3.19142000e+00 1.66632000e+01 3.40874000e+01	Si
atom  3.68347000e+00 1.91598000e+01 3.17951000e+01	N
atom  2.06798000e+00 1.84051000e+01 3.19629000e+01	Si
atom  1.96526000e+00 1.79366000e+01 3.37070000e+01	N
atom  3.81491000e+00 1.18431000e+01 3.48180000e+01	Si
atom  2.16432000e+00 1.23826000e+01 3.87497000e+01	N
atom  4.00840000e+00 1.47423000e+01 3.65042000e+01	Si
atom  3.17504000e+00 1.49175000e+01 3.81232000e+01	N
atom  3.63273000e+00 1.05477000e+01 3.59453000e+01	N
atom  3.77181000e+00 1.18496000e+01 3.92741000e+01	Si
atom  3.60126000e+00 1.34541000e+01 3.55165000e+01	N
atom  3.61891000e+00 1.63458000e+01 3.57671000e+01	N
atom  2.06097000e+00 1.92840000e+01 3.49630000e+01	Si
atom  3.54740000e+00 1.90936000e+01 3.58824000e+01	N
atom  3.80894000e+00 1.62286000e+01 3.89681000e+01	Si
atom  3.02069000e+00 2.38155000e+01 3.42360000e+00	N
atom  2.99398000e+00 2.11401000e+01 2.49509000e+00	N
atom  3.61850000e+00 2.21771000e+01 3.67878000e+00	Si
atom  3.56313000e+00 2.07424000e+01 9.44924000e-01	Si
atom  2.34522000e+00 2.40157000e+01 2.95051000e-01	N
atom  3.91937000e+00 2.53504000e+01 3.21026000e+00	Si
atom  2.18214000e+00 2.11811000e+01 -5.56777000e-02	N
atom  2.55527000e+00 2.86288000e+01 3.85061000e+00	N
atom  3.03192000e+00 2.79227000e+01 2.32298000e+00	Si
atom  3.05375000e+00 2.62543000e+01 1.95052000e+00	N
atom  3.35755000e+00 2.60782000e+01 4.74090000e+00	N
atom  3.14273000e+00 2.14765000e+01 5.25424000e+00	N
atom  3.55915000e+00 2.21814000e+01 6.80902000e+00	Si
atom  2.64481000e+00 2.12625000e+01 7.99129000e+00	N
atom  3.02525000e+00 2.37984000e+01 6.56955000e+00	N
atom  4.06543000e+00 2.11167000e+01 8.95344000e+00	Si
atom  4.02692000e+00 2.51694000e+01 6.07442000e+00	Si
atom  2.27300000e+00 2.67353000e+01 7.57969000e+00	Si
atom  2.25627000e+00 2.81518000e+01 6.52092000e+00	N
atom  2.05635000e+00 2.73896000e+01 5.00814000e+00	Si
atom  4.03870000e+00 2.63209000e+01 7.35870000e+00	N
atom  3.04039000e+00 2.83325000e+01 8.82102000e+00	N
atom  2.46306000e+00 2.95272000e+01 7.56200000e+00	Si
atom  2.77488000e+00 2.40416000e+01 1.29415000e+01	Si
atom  3.19005000e+00 2.47516000e+01 1.14148000e+01	N
atom  3.54607000e+00 2.09212000e+01 1.05572000e+01	N
atom  4.14946000e+00 2.30203000e+01 1.33807000e+01	N
atom  3.59917000e+00 2.21329000e+01 1.47822000e+01	Si
atom  2.19405000e+00 2.54321000e+01 1.38796000e+01	N
atom  3.55080000e+00 2.94038000e+01 1.12010000e+01	N