lattice_vector  3.98798572e+01 0.00000000e+00 0.00000000e+00
lattice_vector  2.44193697e-15 3.98798572e+01 0.00000000e+00
lattice_vector  2.44193697e-15 2.44193697e-15 3.98798572e+01
atom  1.16798000e+00 1.57249000e+00 9.91834000e-01	Si
atom  8.34514000e-01 2.20538000e+00 4.46395000e+00	N
atom  -2.53747000e-02 4.72933000e+00 4.76164000e-01	N
atom  6.51635000e-01 3.95264000e+00 4.56031000e+00	Si
atom  -2.36121000e-01 4.47771000e+00 3.18434000e+00	N
atom  4.26790000e-01 6.30715000e+00 3.28798000e+00	Si
atom  1.39622000e+00 7.85291000e+00 3.54085000e+00	N
atom  1.38070000e+00 5.72333000e+00 5.96831000e-01	Si
atom  1.68452000e-01 1.01069000e+01 3.43027000e-01	Si
atom  -3.29221000e-01 9.77252000e+00 1.93183000e+00	N
atom  1.86962000e+00 5.86887000e+00 2.18650000e+00	N
atom  8.73629000e-01 8.86007000e+00 4.86800000e+00	Si
atom  -1.95975000e-01 9.19533000e-01 4.97058000e+00	Si
atom  1.34067000e+00 2.55580000e+00 7.67458000e+00	N
atom  1.71621000e+00 2.71284000e+00 9.39140000e+00	Si
atom  -2.40611000e-01 2.68875000e+00 7.09577000e+00	Si
atom  4.57420000e-01 1.03277000e+01 9.58246000e+00	N
atom  1.76836000e-01 6.96411000e+00 9.03303000e+00	Si
atom  1.33820000e+00 6.17022000e+00 8.00824000e+00	N
atom  1.53849000e+00 6.55886000e+00 6.27949000e+00	Si
atom  4.55388000e-01 5.87150000e+00 5.04522000e+00	N
atom  1.78009000e+00 8.31678000e+00 6.20342000e+00	N
atom  1.06255000e+00 1.31742000e+00 1.17982000e+01	Si
atom  1.00794000e+00 2.49608000e+00 1.30472000e+01	N
atom  1.42400000e+00 4.01276000e+00 1.21820000e+01	Si
atom  4.27925000e-01 2.14357000e+00 1.03766000e+01	N
atom  2.79583000e-02 4.93118000e+00 1.24492000e+01	N
atom  1.34144000e+00 2.09493000e+00 1.47896000e+01	Si
atom  7.36661000e-01 8.23768000e+00 1.34524000e+01	Si
atom  5.46117000e-01 9.65774000e+00 1.24851000e+01	N
atom  9.46994000e-01 7.85023000e+00 1.03225000e+01	N
atom  5.57692000e-02 9.20905000e+00 1.08946000e+01	Si
atom  -3.92069000e-01 5.66906000e+00 1.40514000e+01	Si
atom  2.66200000e-01 8.26476000e-01 1.52943000e+01	N
atom  1.09175000e+00 2.97728000e+00 1.61869000e+01	N
atom  3.75362000e-01 1.48883000e+00 1.69006000e+01	Si
atom  1.21848000e+00 4.71739000e+00 1.65388000e+01	Si
atom  1.03943000e-01 5.00043000e+00 1.94551000e+01	Si
atom  8.41480000e-01 5.67353000e-01 1.81901000e+01	N
atom  5.59005000e-02 5.12530000e+00 1.76774000e+01	N
atom  1.06588000e+00 5.53639000e+00 1.50049000e+01	N
atom  1.33274000e+00 8.54798000e+00 1.49844000e+01	N
atom  6.16323000e-01 9.87193000e+00 1.59763000e+01	Si
atom  1.05771000e+00 9.99342000e+00 1.76222000e+01	N
atom  1.40449000e+00 7.93361000e+00 1.96866000e+01	N
atom  6.65670000e-01 1.00471000e+00 2.39299000e+01	Si
atom  -9.01035000e-02 4.81106000e+00 2.40021000e+01	Si
atom  -6.20250000e-02 2.78396000e+00 2.16642000e+01	Si
atom  1.20257000e+00 2.46277000e+00 2.46592000e+01	N
atom  1.58333000e+00 4.92556000e+00 2.35127000e+01	N
atom  1.72687000e+00 5.11102000e+00 2.01343000e+01	N
atom  1.70502000e+00 2.83362000e+00 2.19688000e+01	N
atom  -3.25450000e-01 1.27046000e+00 2.24263000e+01	N
atom  1.13039000e-01 7.72341000e+00 2.42814000e+01	Si
atom  1.65263000e+00 7.90047000e+00 2.36755000e+01	N
atom  -3.03370000e-01 7.91777000e+00 2.00299000e+01	Si
atom  2.29221000e-01 3.91541000e+00 2.89321000e+01	N
atom  -7.46685000e-02 1.91152000e+00 2.70986000e+01	N
atom  4.07846000e-01 2.24957000e+00 2.87591000e+01	Si
atom  6.46881000e-01 3.15763000e+00 2.61298000e+01	Si
atom  1.72026000e+00 4.84136000e+00 2.85593000e+01	Si
atom  5.67721000e-01 7.42572000e+00 2.60043000e+01	N
atom  1.00325000e+00 7.23980000e+00 2.90041000e+01	Si
atom  1.54693000e+00 8.99652000e+00 2.83346000e+01	N
atom  1.83835000e+00 4.32390000e-01 2.05610000e+01	N
atom  2.02610000e+00 3.87566000e+00 2.69307000e+01	N
atom  1.94537000e+00 1.64153000e+00 2.91268000e+01	N
atom  6.38285000e-01 4.51394000e+00 3.24980000e+01	N
atom  9.25260000e-01 4.29658000e+00 3.42014000e+01	Si
atom  1.13372000e+00 7.91905000e-01 3.17143000e+01	N
atom  -3.86867000e-02 5.51355000e-01 3.42207000e+01	N
atom  9.81241000e-01 7.11632000e+00 3.25159000e+01	N
atom  8.72137000e-01 7.22403000e+00 3.41782000e+01	Si
atom  1.69295000e+00 5.70803000e+00 3.17444000e+01	Si
atom  2.30934000e-01 8.23077000e+00 3.02759000e+01	N
atom  1.46845000e+00 5.91453000e+00 3.00366000e+01	N
atom  -3.30509000e-02 9.74108000e+00 3.26550000e+01	N
atom  -2.42481000e-01 8.17763000e+00 3.19228000e+01	Si
atom  1.75146000e+00 6.94132000e+00 3.63523000e+01	Si
atom  -3.65921000e-01 3.25620000e+00 3.47605000e+01	N
atom  1.53159000e+00 1.96474000e+00 3.92178000e+01	N
atom  -1.56044000e-01 1.71727000e+00 3.55601000e+01	Si
atom  1.55623000e+00 3.53793000e+00 3.85739000e+01	Si
atom  9.23212000e-01 1.01619000e+00 3.66411000e+01	N
atom  -1.50737000e-01 3.66658000e+00 3.78401000e+01	N
atom  2.19100000e-01 7.52099000e+00 3.70186000e+01	N
atom  1.21836000e+00 5.74785000e+00 3.50526000e+01	N
atom  -1.97821000e-01 7.46606000e+00 3.86854000e+01	Si
atom  1.21324000e+00 7.23541000e+00 3.96527000e+01	N
atom  9.92548000e-01 9.63572000e+00 2.98494000e+01	Si
atom  4.47649000e-01 1.27899000e+01 2.94294000e+00	N
atom  2.91204000e-03 1.18510000e+01 4.33986000e+00	Si
atom  1.14955000e+00 1.05155000e+01 4.44670000e+00	N
atom  2.76375000e-01 1.83013000e+01 9.06967000e+00	Si
atom  1.24300000e+00 1.99725000e+01 5.18565000e+00	N
atom  -8.35714000e-02 1.71661000e+01 3.73794000e+00	Si
atom  1.61944000e+00 1.74281000e+01 3.90948000e+00	N
atom  1.32550000e+00 1.90783000e+01 6.72500000e+00	Si
atom  -7.69036000e-02 1.67835000e+01 9.80982000e+00	N
atom  -1.66808000e-01 1.86208000e+01 7.41075000e+00	N
atom  -3.20408000e-01 1.84743000e+01 -1.23526000e-01	N
atom  -3.94828000e-01 1.57393000e+01 4.71281000e+00	N
atom  -1.51995000e-01 1.22592000e+01 7.20157000e+00	Si
atom  3.71373000e-02 1.30175000e+01 5.60930000e+00	N
atom  1.18288000e+00 1.27242000e+01 8.17718000e+00	N
atom  1.36771000e+00 1.44129000e+01 8.44213000e+00	Si
atom  3.86271000e-01 1.46451000e+01 5.76101000e+00	Si
atom  -3.62992000e-02 1.49344000e+01 7.42836000e+00	N
atom  1.75661000e+00 1.13333000e+01 9.12337000e+00	Si
atom  -4.66252000e-01 1.42165000e+01 9.83863000e-01	N
atom  -3.40387000e-01 2.02393000e+01 4.47342000e+00	Si
atom  4.50442000e-01 1.24364000e+01 1.22520000e+01	N
atom  1.12301000e+00 1.11274000e+01 1.31381000e+01	Si
atom  1.27953000e+00 1.43222000e+01 1.01978000e+01	N
atom  1.53851000e+00 1.49928000e+01 1.36919000e+01	Si
atom  1.74168000e+00 1.31996000e+01 1.13935000e+01	Si
atom  2.68813000e-01 1.54739000e+01 1.24600000e+01	N
atom  9.29341000e-01 1.58717000e+01 1.09209000e+01	Si
atom  -4.02643000e-02 1.87373000e+01 1.40316000e+01	N
atom  -1.93003000e-01 1.95658000e+01 1.00864000e+01	N
atom  1.12512000e+00 1.11798000e+01 1.49407000e+01	N
atom  1.23933000e+00 1.38509000e+01 1.49377000e+01	N
atom  6.07746000e-02 1.20433000e+01 1.95867000e+01	N
atom  5.62222000e-01 1.16946000e+01 1.80063000e+01	Si
atom  1.03634000e-01 1.25925000e+01 1.52648000e+01	Si
atom  1.39287000e+00 1.44359000e+01 1.82668000e+01	Si
atom  -3.11090000e-01 1.48173000e+01 1.81084000e+01	N
atom  1.67433000e+00 1.28697000e+01 1.75156000e+01	N
atom  1.39285000e+00 1.81505000e+01 1.48839000e+01	Si
atom  1.74212000e+00 1.65184000e+01 1.90970000e+01	N
atom  1.68682000e+00 1.98842000e+01 1.85129000e+01	N
atom  4.04474000e-01 1.91482000e+01 1.76248000e+01	Si
atom  1.10934000e+00 1.78475000e+01 1.66149000e+01	N
atom  -5.98492000e-01 1.19615000e+01 1.67115000e+01	N
atom  8.85194000e-01 1.29098000e+01 2.08333000e+01	Si
atom  8.64923000e-01 1.12150000e+01 2.39670000e+01	Si
atom  -2.81700000e-01 1.36776000e+01 2.18464000e+01	N
atom  6.42761000e-01 1.28368000e+01 2.46706000e+01	N
atom  1.90186000e-01 1.53693000e+01 2.20842000e+01	Si
atom  2.57512000e-01 1.81153000e+01 2.34817000e+01	N
atom  1.43075000e+00 1.83931000e+01 2.09321000e+01	N
atom  5.76178000e-01 1.98311000e+01 2.37780000e+01	Si
atom  -3.88999000e-01 1.55182000e+01 2.37243000e+01	N
atom  5.06358000e-01 1.73845000e+01 1.99309000e+01	Si
atom  1.83429000e+00 1.81745000e+01 2.26665000e+01	Si
atom  5.16729000e-01 1.45317000e+01 2.48607000e+01	Si
atom  6.46854000e-01 1.46233000e+01 2.80798000e+01	Si
atom  3.50828000e-01 1.19319000e+01 2.62081000e+01	Si
atom  1.81968000e-02 1.49325000e+01 2.64731000e+01	N
atom  -2.50077000e-01 1.33915000e+01 2.89690000e+01	N
atom  1.86703000e+00 1.15236000e+01 2.68691000e+01	N
atom  6.76323000e-02 1.04887000e+01 2.53469000e+01	N
atom  2.45533000e-01 1.62514000e+01 2.86633000e+01	N
atom  1.66151000e+00 1.73476000e+01 2.84024000e+01	Si
atom  7.77047000e-01 1.98581000e+01 2.55288000e+01	N
atom  4.21202000e-02 1.99891000e+01 2.89984000e+01	Si
atom  1.18172000e+00 1.89244000e+01 2.78740000e+01	N
atom  1.35835000e+00 1.38446000e+01 3.25155000e+01	Si
atom  1.30377000e+00 1.08461000e+01 3.25923000e+01	Si
atom  1.48128000e+00 1.23873000e+01 3.16789000e+01	N
atom  5.71092000e-01 1.21911000e+01 3.00047000e+01	Si
atom  -2.23785000e-01 1.40990000e+01 3.31912000e+01	N
atom  1.18624000e+00 1.76146000e+01 3.91905000e+01	Si
atom  -3.60074000e-01 1.07787000e+01 2.97126000e+01	N
atom  1.17044000e+00 1.51729000e+01 3.13692000e+01	N
atom  -3.49604000e-01 1.86399000e+01 3.00339000e+01	N
atom  1.05139000e+00 1.75540000e+01 3.24488000e+01	N
atom  6.10292000e-01 1.89284000e+01 3.14715000e+01	Si
atom  5.80799000e-01 1.79567000e+01 3.41435000e+01	Si
atom  -2.15038000e-01 1.58301000e+01 3.24825000e+01	Si
atom  9.96102000e-01 1.42421000e+01 3.98047000e+01	Si
atom  1.46060000e+00 1.20229000e+01 3.56361000e+01	Si
atom  1.44258000e+00 1.19595000e+01 3.85157000e+01	Si
atom  4.63671000e-01 1.44848000e+01 3.68039000e+01	Si
atom  1.70759000e-01 1.32415000e+01 3.56555000e+01	N
atom  1.39487000e+00 1.09224000e+01 3.70655000e+01	N
atom  1.03961000e+00 1.36527000e+01 3.82049000e+01	N
atom  7.05548000e-02 1.16808000e+01 3.94754000e+01	N
atom  1.63395000e+00 1.55232000e+01 3.60581000e+01	N
atom  8.90258000e-01 1.59391000e+01 3.95685000e+01	N
atom  -1.56140000e-01 2.01798000e+01 3.95092000e+01	Si
atom  8.35019000e-01 1.78161000e+01 3.74602000e+01	N
atom  1.86780000e+00 2.00394000e+01 3.11319000e+01	N
atom  1.92309000e+00 1.10132000e+01 3.42176000e+01	N
atom  5.15208000e-01 2.40146000e+01 1.47274000e+00	Si
atom  1.56569000e+00 2.26416000e+01 1.52798000e+00	N
atom  1.58757000e+00 2.13120000e+01 2.75511000e+00	Si
atom  9.41532000e-01 2.49480000e+01 6.90538000e-02	N
atom  -1.16475000e-01 2.11788000e+01 2.99337000e+00	N
atom  6.36950000e-01 2.51938000e+01 2.78434000e+00	N
atom  1.46141000e+00 2.05573000e+01 7.52905000e-02	N
atom  2.06111000e-01 2.98313000e+01 6.74516000e-01	N
atom  4.25881000e-01 2.86030000e+01 3.43013000e+00	N
atom  1.07176000e+00 2.66266000e+01 4.30685000e-01	Si
atom  8.49403000e-01 2.27014000e+01 5.98643000e+00	N
atom  1.32174000e+00 2.43556000e+01 5.97746000e+00	Si
atom  1.75837000e+00 2.22888000e+01 -1.41380000e-01	Si
atom  1.86711000e+00 2.05643000e+01 7.54189000e+00	N
atom  2.93219000e-01 2.81012000e+01 5.99223000e+00	N
atom  7.34398000e-01 2.68290000e+01 8.76836000e+00	N
atom  3.41784000e-01 2.66555000e+01 6.95881000e+00	Si
atom  -1.28891000e-01 2.53441000e+01 5.71361000e+00	N
atom  7.63852000e-01 2.86408000e+01 9.04785000e+00	Si
atom  1.22906000e+00 2.95828000e+01 6.36411000e+00	Si
atom  2.05388000e+00 2.87421000e+01 3.84484000e+00	Si
atom  1.34364000e+00 2.34880000e+01 1.20391000e+01	N
atom  2.46929000e-01 2.27149000e+01 1.31390000e+01	Si
atom  1.14198000e+00 2.37650000e+01 1.03749000e+01	Si
atom  5.77540000e-01 2.16925000e+01 1.45515000e+01	N
atom  -2.34762000e-01 2.13022000e+01 1.22141000e+01	N
atom  -2.15794000e-01 2.11816000e+01 1.05069000e+01	Si
atom  -2.48683000e-01 2.04103000e+01 1.37227000e+01	Si
atom  -2.36318000e-01 2.61596000e+01 1.00851000e+01	Si
atom  1.54821000e-01 2.56435000e+01 1.32453000e+01	Si
atom  6.25969000e-01 2.86567000e+01 1.34225000e+01	N
atom  5.36452000e-01 2.63007000e+01 1.16441000e+01	N
atom  7.82593000e-01 2.90178000e+01 1.07151000e+01	N
atom  1.34223000e+00 2.80244000e+01 1.19834000e+01	Si
atom  1.64563000e+00 2.62350000e+01 1.41238000e+01	N
atom  6.18864000e-01 2.32588000e+01 1.73005000e+01	N
atom  -8.52529000e-02 2.20610000e+01 1.61647000e+01	Si
atom  -1.23528000e-01 2.42660000e+01 1.85140000e+01	Si
atom  1.55008000e+00 2.42659000e+01 1.93793000e+01	N
atom  2.49234000e-01 2.59463000e+01 1.81877000e+01	N
atom  9.02647000e-01 2.86903000e+01 1.80591000e+01	N
atom  1.19904000e+00 2.77655000e+01 1.48047000e+01	Si
atom  -1.29213000e-01 2.74522000e+01 1.58014000e+01	N
atom  6.40552000e-01 2.99363000e+01 1.91687000e+01	Si
atom  -2.57179000e-01 2.74726000e+01 1.75509000e+01	Si
atom  1.78543000e+00 2.59713000e+01 1.90632000e+01	Si
atom  -4.06997000e-01 2.04498000e+01 1.67407000e+01	N
atom  1.14848000e+00 2.21414000e+01 9.82113000e+00	N
atom  1.87635000e-01 2.20575000e+01 2.17120000e+01	Si
atom  5.88787000e-01 2.37093000e+01 2.21494000e+01	N
atom  1.75417000e+00 2.14875000e+01 2.10355000e+01	N
atom  -3.11745000e-01 2.11541000e+01 2.31327000e+01	N
atom  5.70151000e-01 2.77123000e+01 2.14020000e+01	Si
atom  1.03065000e+00 2.94781000e+01 2.07617000e+01	N
atom  5.01694000e-01 2.62807000e+01 2.25544000e+01	N
atom  1.56897000e+00 2.67645000e+01 2.38030000e+01	Si
atom  9.55292000e-02 2.89440000e+01 2.44480000e+01	Si
atom  -1.03914000e-01 2.87903000e+01 2.27355000e+01	N
atom  2.43971000e-01 2.67280000e+01 2.76544000e+01	N
atom  1.36250000e+00 3.01594000e+01 2.41038000e+01	N
atom  1.21816000e+00 2.15804000e+01 2.83479000e+01	N
atom  8.11147000e-02 2.25753000e+01 2.91575000e+01	Si
atom  7.17991000e-01 2.31627000e+01 2.57272000e+01	N
atom  5.34702000e-01 2.74143000e+01 2.50553000e+01	N
atom  6.64615000e-01 2.95405000e+01 2.96944000e+01	N
atom  1.94194000e+00 2.69575000e+01 2.04981000e+01	N
atom  6.97805000e-01 2.34634000e+01 3.20588000e+01	Si
atom  3.16389000e-01 2.37409000e+01 3.03484000e+01	N
atom  3.62121000e-01 2.50884000e+01 3.25932000e+01	N
atom  1.10016000e+00 2.64584000e+01 3.18242000e+01	Si
atom  1.16674000e+00 2.78968000e+01 3.26395000e+01	N
atom  7.35798000e-02 2.65855000e+01 3.04070000e+01	N
atom  -8.70123000e-02 2.87769000e+01 3.91619000e+01	Si
atom  1.20656000e+00 2.45194000e+01 3.83112000e+01	Si
atom  2.37636000e-01 2.42942000e+01 3.57261000e+01	Si
atom  8.38926000e-01 2.27794000e+01 3.84266000e+01	N
atom  6.41801000e-02 2.25778000e+01 3.58370000e+01	N
atom  -3.00308000e-01 2.48973000e+01 3.73395000e+01	N
atom  -3.70228000e-01 2.21070000e+01 3.74146000e+01	Si
atom  1.81228000e+00 2.47142000e+01 3.52817000e+01	N
atom  1.02690000e+00 2.75030000e+01 3.87747000e+01	N
atom  1.73948000e+00 2.98326000e+01 3.69817000e+01	Si
atom  1.69876000e-01 2.98754000e+01 3.78175000e+01	N
atom  -3.71582000e-01 2.04092000e+01 3.77071000e+01	N
atom  7.94346000e-01 3.22585000e+01 3.55647000e+00	Si
atom  6.25565000e-01 3.15569000e+01 6.09593000e-01	Si
atom  6.63215000e-02 3.25088000e+01 1.98314000e+00	N
atom  2.95228000e-02 3.42227000e+01 1.82927000e+00	Si
atom  1.67188000e+00 3.47039000e+01 1.98014000e+00	N
atom  9.93075000e-01 3.36642000e+01 4.60462000e+00	N
atom  1.17907000e+00 3.70709000e+01 5.64714000e-01	N
atom  9.05234000e-01 3.97461000e+01 1.55325000e+00	N
atom  1.53367000e+00 3.86488000e+01 1.45148000e-01	Si
atom  -1.60264000e-01 3.79636000e+01 4.76236000e+00	Si
atom  6.96157000e-01 3.11922000e+01 6.77306000e+00	N
atom  1.00720000e+00 3.36682000e+01 8.04792000e+00	N
atom  1.84784000e+00 3.22428000e+01 7.61672000e+00	Si
atom  -1.99798000e-01 3.15901000e+01 9.52501000e+00	N
atom  1.42178000e+00 3.54118000e+01 8.02086000e+00	Si
atom  -8.11621000e-02 3.62103000e+01 7.93088000e+00	N
atom  5.53486000e-01 3.64204000e+01 4.98144000e+00	N
atom  8.52429000e-01 3.93875000e+01 4.87875000e+00	N
atom  1.62234000e+00 3.79790000e+01 7.09864000e+00	N
atom  -1.72914000e-01 3.78338000e+01 7.48925000e+00	Si
atom  -2.79333000e-01 3.48328000e+01 4.70371000e+00	Si
atom  -3.20407000e-01 3.47388000e+01 1.92425000e-01	N
atom  -2.52875000e-01 3.33163000e+01 9.16688000e+00	Si
atom  1.88800000e-01 3.13436000e+01 1.38841000e+01	N
atom  1.58422000e+00 3.15056000e+01 1.16099000e+01	N
atom  2.13966000e-01 3.06649000e+01 1.09381000e+01	Si
atom  1.15218000e+00 3.48953000e+01 1.36156000e+01	Si
atom  -3.01932000e-02 3.45161000e+01 1.04131000e+01	N
atom  1.71545000e+00 3.17544000e+01 1.33199000e+01	Si
atom  -2.17468000e-01 3.39275000e+01 1.30585000e+01	N
atom  6.52505000e-01 3.88032000e+01 1.03713000e+01	Si
atom  2.54263000e-01 3.64229000e+01 1.38804000e+01	N
atom  1.22424000e+00 3.57192000e+01 1.08085000e+01	Si
atom  4.73490000e-01 3.72206000e+01 1.11798000e+01	N
atom  7.62149000e-02 3.98040000e+01 1.16851000e+01	N
atom  1.04831000e-01 3.34025000e+01 1.56597000e+01	N
atom  1.66986000e+00 3.13441000e+01 1.89718000e+01	N
atom  4.17630000e-01 3.96592000e+01 1.97670000e+01	Si
atom  7.34205000e-01 3.52931000e+01 1.95612000e+01	N
atom  -1.16579000e-01 3.58275000e+01 1.70689000e+01	N
atom  -1.82494000e-01 3.79601000e+01 1.59316000e+01	N
atom  1.43132000e+00 3.54659000e+01 1.79879000e+01	Si
atom  5.93045000e-01 3.64527000e+01 1.55720000e+01	Si
atom  5.05976000e-01 3.17265000e+01 2.42169000e+01	Si
atom  1.50570000e+00 3.21853000e+01 2.04761000e+01	Si
atom  -2.34339000e-02 3.29266000e+01 2.07854000e+01	N
atom  1.69279000e+00 3.29951000e+01 2.42021000e+01	N
atom  5.07793000e-01 3.74611000e+01 2.65529000e+01	N
atom  8.26555000e-01 3.02467000e+01 2.23181000e+01	Si
atom  -2.79615000e-01 3.63642000e+01 2.44739000e+01	N
atom  -2.93114000e-01 3.67205000e+01 2.00437000e+01	Si
atom  8.26685000e-01 3.79575000e+01 1.98070000e+01	N
atom  7.88277000e-01 3.21401000e+01 2.82162000e+01	N
atom  6.81802000e-01 3.43834000e+01 2.64516000e+01	N
atom  -1.47324000e-01 3.30023000e+01 2.70552000e+01	Si
atom  2.62350000e-01 3.11921000e+01 2.95155000e+01	Si
atom  5.00239000e-02 3.98400000e+01 2.51580000e+01	N
atom  1.07233000e+00 3.80259000e+01 2.92209000e+01	N
atom  1.79778000e+00 3.77136000e+01 2.76681000e+01	Si
atom  -2.56807000e-01 3.81345000e+01 2.50507000e+01	Si
atom  -1.92727000e-01 3.59130000e+01 2.61373000e+01	Si
atom  -3.59711000e-01 3.18839000e+01 2.56901000e+01	N
atom  1.17930000e+00 3.20060000e+01 3.24447000e+01	Si
atom  2.97887000e-01 3.22085000e+01 3.09702000e+01	N
atom  3.20849000e-02 3.19971000e+01 3.37607000e+01	N
atom  1.77413000e+00 3.49977000e+01 3.21017000e+01	Si
atom  1.83336000e+00 3.04822000e+01 3.24634000e+01	N
atom  1.48592000e+00 3.50805000e+01 3.03545000e+01	N
atom  6.31233000e-01 3.56458000e+01 3.31759000e+01	N
atom  2.31468000e-01 3.73222000e+01 3.29574000e+01	Si
atom  1.57395000e+00 3.83609000e+01 3.32768000e+01	N
atom  1.42096000e+00 4.00750000e+01 3.33209000e+01	Si
atom  7.40749000e-02 3.09116000e+01 3.51070000e+01	Si
atom  4.13891000e-01 3.38956000e+01 3.61960000e+01	N
atom  1.56335000e+00 3.12112000e+01 3.59068000e+01	N
atom  -1.88399000e-01 3.64021000e+01 3.95441000e+01	Si
atom  6.37951000e-01 3.69952000e+01 3.56316000e+01	N
atom  5.42814000e-01 3.93135000e+01 3.72400000e+01	Si
atom  1.72558000e-01 3.89794000e+01 3.89414000e+01	N
atom  5.25383000e-01 3.55600000e+01 3.65989000e+01	Si
atom  3.32145000e+00 3.31066000e+00 8.96080000e-01	Si
atom  2.54431000e+00 4.04184000e+00 4.05464000e+00	N
atom  3.35235000e+00 1.07066000e+00 4.39113000e+00	N
atom  2.38067000e+00 2.29572000e+00 3.69103000e+00	Si
atom  2.35844000e+00 2.28818000e+00 1.94372000e+00	N
atom  4.20800000e+00 4.40485000e+00 1.96738000e+00	N
atom  3.20998000e+00 5.24429000e+00 3.09431000e+00	Si
atom  3.77091000e+00 9.40505000e+00 4.00816000e+00	N
atom  3.10143000e+00 8.03363000e+00 3.03648000e+00	Si
atom  3.48070000e+00 8.57461000e+00 1.42359000e+00	N
atom  4.07386000e+00 6.73776000e+00 3.43904000e+00	N
atom  3.66794000e+00 7.93555000e+00 8.25447000e+00	N
atom  3.83551000e+00 4.79099000e+00 8.54702000e+00	N
atom  2.94078000e+00 1.90250000e+00 7.37213000e+00	Si
atom  3.20971000e+00 1.86538000e+00 9.16393000e+00	N
atom  3.75159000e+00 3.00089000e+00 6.28446000e+00	N
atom  4.15999000e+00 4.60294000e+00 6.82581000e+00	Si
atom  3.06112000e+00 6.28009000e+00 8.32432000e+00	Si
atom  3.12447000e+00 5.84523000e+00 6.35804000e+00	N
atom  3.08343000e+00 9.08419000e+00 7.12693000e+00	Si
atom  1.89268000e+00 9.95598000e+00 8.52845000e-02	N
atom  2.93364000e+00 4.64581000e+00 1.29104000e+01	N
atom  2.75833000e+00 9.80187000e-01 1.17876000e+01	N
atom  3.91721000e+00 1.13904000e+00 1.31263000e+01	Si
atom  2.91553000e+00 1.35447000e+00 1.46280000e+01	N
atom  3.58960000e+00 4.71740000e+00 1.02503000e+01	Si
atom  2.14887000e+00 3.93803000e+00 1.05887000e+01	N
atom  3.43440000e+00 5.40981000e-01 1.03024000e+01	Si
atom  3.46218000e+00 8.96090000e+00 1.10933000e+01	N
atom  2.45963000e+00 5.99495000e+00 1.39002000e+01	Si
atom  2.41510000e+00 7.57926000e+00 1.12287000e+01	Si
atom  3.25859000e+00 6.45084000e+00 1.02732000e+01	N
atom  1.89222000e+00 7.12324000e+00 1.28317000e+01	N
atom  3.71855000e+00 6.78074000e+00 1.48395000e+01	N
atom  2.70610000e+00 2.57831000e+00 1.93877000e+01	N
atom  2.50792000e+00 8.64110000e-01 1.88071000e+01	Si
atom  3.34137000e+00 3.10785000e+00 1.78352000e+01	Si
atom  2.89081000e+00 4.63044000e+00 1.71941000e+01	N
atom  3.20154000e+00 1.45862000e+00 1.72930000e+01	N
atom  4.06419000e+00 1.00108000e+00 1.58794000e+01	Si
atom  3.70869000e+00 9.44148000e+00 1.85743000e+01	N
atom  2.77788000e+00 8.00944000e+00 1.56483000e+01	Si
atom  3.99838000e+00 6.45527000e+00 1.93717000e+01	N
atom  3.53114000e+00 9.58708000e+00 1.57568000e+01	N
atom  3.65381000e+00 6.19743000e+00 1.76633000e+01	Si
atom  2.15883000e+00 8.75692000e+00 1.83416000e+01	Si
atom  2.54118000e+00 7.46962000e+00 1.72376000e+01	N
atom  2.55623000e+00 3.70129000e+00 2.06818000e+01	Si
atom  2.42899000e+00 1.25542000e+00 2.19290000e+01	Si
atom  2.18981000e+00 3.37392000e+00 2.35358000e+01	Si
atom  3.81963000e+00 3.59024000e+00 2.40090000e+01	N
atom  4.12420000e+00 1.53276000e+00 2.20378000e+01	N
atom  4.19708000e+00 3.92150000e+00 2.12297000e+01	N
atom  2.46042000e+00 6.64863000e+00 2.03172000e+01	Si
atom  3.14208000e+00 6.77452000e+00 2.18838000e+01	N
atom  2.88636000e+00 8.87487000e+00 2.43817000e+01	Si
atom  2.56627000e+00 6.38072000e+00 2.34526000e+01	Si
atom  3.67249000e+00 9.66322000e+00 2.14113000e+01	N
atom  4.25461000e+00 8.04539000e+00 2.20217000e+01	Si
atom  3.44319000e+00 4.32706000e+00 2.89811000e+01	N
atom  3.57817000e+00 3.42651000e+00 2.74352000e+01	Si
atom  3.98643000e+00 1.74506000e+00 2.74440000e+01	N
atom  3.16967000e+00 5.74918000e-01 2.84346000e+01	Si
atom  4.07766000e+00 1.01857000e+01 2.75246000e+01	N
atom  3.23979000e+00 6.17348000e+00 2.50952000e+01	N
atom  2.21557000e+00 7.07583000e+00 2.62679000e+01	Si
atom  2.33672000e+00 6.34841000e+00 2.78299000e+01	N
atom  4.04416000e+00 5.99457000e+00 2.83286000e+01	Si
atom  2.41514000e+00 9.83572000e+00 2.71507000e+01	Si
atom  3.05375000e+00 8.58415000e+00 2.60231000e+01	N
atom  3.17005000e+00 2.73741000e+00 3.14005000e+01	N
atom  3.29598000e+00 2.73087000e+00 3.32491000e+01	Si
atom  2.55636000e+00 1.22817000e+00 3.08235000e+01	Si
atom  3.00499000e+00 1.02542000e+00 3.35986000e+01	N
atom  2.52608000e+00 3.68813000e+00 3.44329000e+01	N
atom  4.00391000e+00 4.15850000e+00 3.06284000e+01	Si
atom  3.44036000e+00 5.40955000e+00 3.16842000e+01	N
atom  3.77697000e+00 9.63949000e+00 3.14155000e+01	Si
atom  2.94173000e+00 9.59859000e+00 3.46257000e+01	Si
atom  3.90292000e+00 9.30363000e+00 3.31775000e+01	N
atom  2.12503000e+00 1.00605000e+01 3.12177000e+01	N
atom  3.10563000e+00 4.37589000e+00 3.59253000e+01	Si
atom  3.75854000e+00 8.16824000e-01 3.79024000e+01	N
atom  2.55774000e+00 3.25695000e+00 3.71918000e+01	N
atom  2.24697000e+00 1.54185000e+00 3.76011000e+01	Si
atom  2.47203000e+00 4.45749000e+00 3.97242000e+01	N
atom  3.42001000e+00 8.82119000e+00 3.82068000e+01	N
atom  2.06800000e+00 8.13434000e+00 3.50642000e+01	N
atom  2.79573000e+00 5.78234000e+00 3.71325000e+01	N
atom  3.56397000e+00 5.35353000e+00 3.86200000e+01	Si
atom  3.90178000e+00 6.79516000e+00 3.94489000e+01	N
atom  4.01011000e+00 1.00863000e+01 3.59843000e+01	N
atom  2.68111000e+00 8.23784000e+00 3.96820000e+01	Si
atom  2.70586000e+00 1.13730000e+01 2.50099000e+00	N
atom  3.06108000e+00 1.39695000e+01 3.42919000e+00	N
atom  2.76757000e+00 1.08169000e+01 4.13063000e+00	Si
atom  2.39225000e+00 1.36450000e+01 7.80148000e-01	N
atom  3.87141000e+00 1.44102000e+01 1.32122000e-01	Si
atom  2.08051000e+00 1.30198000e+01 2.35531000e+00	Si
atom  3.16748000e+00 1.03866000e+01 1.17671000e+00	Si
atom  4.06332000e+00 1.53085000e+01 2.96335000e+00	Si
atom  2.69057000e+00 1.95990000e+01 7.65631000e-01	Si
atom  2.20153000e+00 1.90483000e+01 3.97755000e+00	Si
atom  3.90416000e+00 1.57340000e+01 1.35899000e+00	N
atom  2.67195000e+00 1.80175000e+01 2.95540000e-02	N
atom  2.14426000e+00 1.97134000e+01 2.39447000e+00	N
atom  4.14528000e+00 1.72761000e+01 5.88577000e-01	Si
atom  3.76405000e+00 1.91916000e+01 4.66454000e+00	N
atom  2.06395000e+00 1.48445000e+01 5.66194000e+00	N
atom  3.27281000e+00 1.36636000e+01 5.13551000e+00	Si
atom  3.29270000e+00 1.19562000e+01 5.42744000e+00	N
atom  2.85725000e+00 1.06443000e+01 7.97321000e+00	N
atom  4.08158000e+00 1.14069000e+01 6.88956000e+00	Si
atom  2.01240000e+00 1.82384000e+01 8.90881000e+00	N
atom  2.06359000e+00 1.74231000e+01 6.53012000e+00	N
atom  2.78861000e+00 1.54197000e+01 8.46147000e+00	N
atom  3.00602000e+00 1.71413000e+01 7.91730000e+00	Si
atom  2.48067000e+00 1.64485000e+01 5.17424000e+00	Si
atom  4.14968000e+00 1.63560000e+01 4.41440000e+00	N
atom  2.68329000e+00 1.42553000e+01 1.25044000e+01	N
atom  2.83246000e+00 1.09576000e+01 1.31140000e+01	N
atom  2.51670000e+00 1.17887000e+01 1.06735000e+01	N
atom  3.57504000e+00 1.06900000e+01 1.15632000e+01	Si
atom  2.86856000e+00 1.09985000e+01 1.49167000e+01	Si
atom  2.97039000e+00 1.70822000e+01 1.28160000e+01	Si
atom  2.53064000e+00 1.66827000e+01 1.10740000e+01	N
atom  3.40239000e+00 1.86293000e+01 1.22266000e+01	N
atom  3.03796000e+00 1.83939000e+01 1.03792000e+01	Si
atom  2.59140000e+00 1.94033000e+01 1.51134000e+01	N
atom  2.97443000e+00 2.01814000e+01 1.03222000e+01	N
atom  1.92632000e+00 1.67341000e+01 1.41094000e+01	N
atom  2.19564000e+00 1.68285000e+01 1.74152000e+01	Si
atom  3.61840000e+00 1.24491000e+01 1.55602000e+01	N
atom  2.39877000e+00 1.35774000e+01 1.61032000e+01	Si
atom  2.40577000e+00 1.51520000e+01 1.70655000e+01	N
atom  3.70203000e+00 1.75909000e+01 1.72004000e+01	N
atom  4.03896000e+00 1.88787000e+01 1.61041000e+01	Si
atom  3.67371000e+00 1.58232000e+01 9.91053000e+00	Si
atom  3.33367000e+00 1.30714000e+01 2.05928000e+01	Si
atom  3.25221000e+00 1.09883000e+01 2.23789000e+01	Si
atom  2.24468000e+00 1.21089000e+01 2.15206000e+01	N
atom  4.12723000e+00 1.44792000e+01 2.11068000e+01	N
atom  2.44581000e+00 1.04697000e+01 2.38128000e+01	N
atom  1.94118000e+00 1.40111000e+01 1.98948000e+01	N
atom  3.76925000e+00 1.99022000e+01 1.99457000e+01	N
atom  2.76771000e+00 1.55947000e+01 2.04463000e+01	Si
atom  3.01710000e+00 1.57314000e+01 2.34097000e+01	Si
atom  3.20444000e+00 1.74688000e+01 2.35690000e+01	N
atom  4.22341000e+00 1.67836000e+01 2.00044000e+01	N
atom  2.13889000e+00 1.98666000e+01 2.31089000e+01	N
atom  1.93195000e+00 1.57047000e+01 2.20601000e+01	N
atom  1.95479000e+00 1.98995000e+01 2.02635000e+01	Si
atom  2.13158000e+00 1.50702000e+01 2.47886000e+01	N
atom  2.16749000e+00 1.21017000e+01 2.93422000e+01	N
atom  2.80855000e+00 1.25445000e+01 2.78449000e+01	Si
atom  2.16581000e+00 1.41070000e+01 2.75674000e+01	N
atom  2.88704000e+00 1.51131000e+01 2.63357000e+01	Si
atom  3.57353000e+00 2.01969000e+01 2.88152000e+01	N
atom  4.14290000e+00 1.81296000e+01 2.48357000e+01	Si
atom  3.39155000e+00 1.90561000e+01 2.61825000e+01	N
atom  2.88843000e+00 1.65530000e+01 2.73630000e+01	N
atom  1.97630000e+00 1.99243000e+01 2.66620000e+01	Si
atom  2.69099000e+00 1.43049000e+01 3.35223000e+01	N
atom  3.08871000e+00 1.22249000e+01 3.08055000e+01	Si
atom  3.98697000e+00 1.46391000e+01 3.24358000e+01	Si
atom  3.14540000e+00 1.92503000e+01 3.02321000e+01	Si
atom  3.65736000e+00 1.61537000e+01 3.15963000e+01	N
atom  3.60819000e+00 1.87905000e+01 3.44473000e+01	Si
atom  2.04373000e+00 1.66688000e+01 3.12897000e+01	Si
atom  2.27976000e+00 1.77446000e+01 2.99366000e+01	N
atom  3.60483000e+00 1.74366000e+01 3.72747000e+01	N
atom  2.15267000e+00 1.80339000e+01 3.49396000e+01	N
atom  3.98160000e+00 1.31066000e+01 3.73893000e+01	Si
atom  3.20640000e+00 1.18203000e+01 3.83275000e+01	N
atom  4.01331000e+00 1.45841000e+01 3.82630000e+01	N
atom  2.86144000e+00 1.46123000e+01 3.51931000e+01	Si
atom  2.84295000e+00 1.30429000e+01 3.59713000e+01	N
atom  2.11142000e+00 1.72066000e+01 3.64316000e+01	Si
atom  3.34691000e+00 2.00765000e+01 3.33387000e+01	N
atom  3.02249000e+00 1.02811000e+01 3.74227000e+01	Si
atom  3.37866000e+00 2.33700000e+01 3.66763000e+00	Si
atom  3.33206000e+00 2.45467000e+01 2.27827000e+00	N
atom  2.76340000e+00 2.18195000e+01 4.01151000e+00	N
atom  4.11220000e+00 2.05362000e+01 5.76081000e-01	N
atom  4.06492000e+00 2.39496000e+01 7.86782000e-01	Si
atom  2.64133000e+00 2.44839000e+01 4.80095000e+00	N
atom  2.87419000e+00 2.93710000e+01 2.52789000e+00	N
atom  3.73142000e+00 2.81093000e+01 1.70685000e+00	Si
atom  2.57036000e+00 2.70655000e+01 4.16012000e+00	N
atom  2.39417000e+00 2.70193000e+01 1.42474000e+00	N
atom  2.27998000e+00 2.58619000e+01 2.82960000e+00	Si
atom  2.34411000e+00 2.61042000e+01 8.60406000e+00	Si
atom  3.80313000e+00 2.24097000e+01 8.79306000e+00	N
atom  2.46243000e+00 2.12927000e+01 9.03132000e+00	Si
atom  3.75324000e+00 2.15672000e+01 6.18759000e+00	N
atom  2.45008000e+00 2.47257000e+01 9.59127000e+00	N
atom  2.01288000e+00 2.14045000e+01 5.89880000e+00	Si
atom  2.51447000e+00 2.97231000e+01 5.20312000e+00	N
atom  1.98928000e+00 2.90239000e+01 7.87342000e+00	N
atom  3.08700000e+00 2.60775000e+01 5.52216000e+00	Si
atom  3.71069000e+00 2.87087000e+01 8.02558000e+00	Si
atom  3.62479000e+00 2.71520000e+01 8.81813000e+00	N
atom  2.00391000e+00 2.57757000e+01 6.83721000e+00	N
atom  2.92681000e+00 2.30553000e+01 1.27110000e+01	Si
atom  2.81422000e+00 2.13243000e+01 1.32161000e+01	N
atom  3.25655000e+00 2.38513000e+01 1.42058000e+01	N
atom  4.00972000e+00 2.31351000e+01 1.13922000e+01	N
atom  2.32148000e+00 2.11085000e+01 1.48025000e+01	Si