lattice_vector  3.99720903e+01 0.00000000e+00 0.00000000e+00
lattice_vector  2.44758462e-15 3.99720903e+01 0.00000000e+00
lattice_vector  2.44758462e-15 2.44758462e-15 3.99720903e+01
atom  7.32307000e-01 3.87256000e+00 9.48430000e-01	N
atom  4.67982000e-01 1.18142000e+00 1.99820000e+00	N
atom  1.46382000e+00 1.64233000e+00 3.36189000e+00	Si
atom  4.34956000e-01 2.17867000e+00 4.57320000e+00	N
atom  -3.21177000e-01 2.41713000e+00 1.10057000e+00	Si
atom  1.29851000e+00 5.37874000e+00 3.28373000e+00	N
atom  2.74367000e-01 5.42216000e+00 3.38126000e-01	Si
atom  4.19433000e-01 6.89986000e+00 1.25184000e+00	N
atom  4.61074000e-01 8.09869000e+00 3.89588000e+00	N
atom  7.72513000e-01 8.55621000e+00 8.88361000e-01	Si
atom  1.10154000e-01 6.64291000e+00 2.98359000e+00	Si
atom  9.57302000e-01 9.54889000e+00 3.05208000e+00	Si
atom  -3.12493000e-01 9.47377000e+00 1.80085000e+00	N
atom  3.12702000e-02 3.84805000e+00 6.97030000e+00	N
atom  -2.08210000e-02 1.81518000e+00 9.21162000e+00	N
atom  1.35734000e+00 8.96161000e-01 8.59423000e+00	Si
atom  1.78332000e+00 3.63405000e+00 7.12278000e+00	Si
atom  5.14102000e-01 5.18388000e+00 9.27678000e+00	Si
atom  2.56581000e-01 6.81402000e+00 8.65412000e+00	N
atom  1.83160000e-01 7.85051000e+00 5.62106000e+00	Si
atom  2.91447000e-01 6.13075000e+00 5.58107000e+00	N
atom  1.53016000e+00 7.87057000e+00 8.17478000e+00	Si
atom  9.59464000e-01 9.42300000e+00 8.73269000e+00	N
atom  1.69911000e+00 8.25573000e+00 6.48267000e+00	N
atom  1.84053000e+00 5.52181000e+00 4.92575000e+00	Si
atom  1.20936000e+00 4.34234000e+00 1.42007000e+01	Si
atom  -1.82720000e-04 2.08781000e+00 1.08909000e+01	Si
atom  8.48954000e-01 2.57727000e+00 1.44546000e+01	N
atom  1.67976000e+00 2.64698000e+00 1.11296000e+01	N
atom  -4.29148000e-01 8.13145000e-01 1.19956000e+01	N
atom  1.03787000e+00 5.31776000e+00 1.09108000e+01	N
atom  6.96162000e-02 5.44120000e+00 1.35565000e+01	N
atom  -1.33900000e-01 9.01035000e+00 1.01667000e+01	Si
atom  5.73496000e-01 6.38478000e+00 1.22197000e+01	Si
atom  9.89792000e-01 8.74282000e+00 1.30118000e+01	Si
atom  -3.29177000e-02 8.09722000e+00 1.17073000e+01	N
atom  5.12372000e-01 8.97391000e+00 1.46495000e+01	N
atom  4.58903000e-01 4.73110000e+00 1.85703000e+01	N
atom  2.00193000e-01 5.03524000e+00 1.67727000e+01	Si
atom  1.65087000e+00 4.92621000e+00 1.58007000e+01	N
atom  1.45692000e+00 3.68392000e+00 1.96901000e+01	Si
atom  1.79136000e+00 3.15922000e-01 1.58639000e+01	N
atom  1.51578000e+00 1.98571000e+00 2.00021000e+01	N
atom  1.60039000e+00 6.92992000e+00 1.82464000e+01	N
atom  1.60746000e+00 8.65808000e+00 1.80584000e+01	Si
atom  2.66140000e-01 9.50136000e+00 1.73773000e+01	N
atom  1.19123000e+00 9.90287000e+00 1.59662000e+01	Si
atom  3.00903000e-01 6.34358000e+00 1.92605000e+01	Si
atom  6.92537000e-01 4.20933000e+00 2.12112000e+01	N
atom  -1.01506000e-01 1.42721000e+00 2.05334000e+01	Si
atom  -4.20859000e-01 5.22199000e+00 2.43606000e+01	Si
atom  1.03378000e+00 5.81042000e+00 2.20921000e+01	Si
atom  9.05483000e-01 6.98460000e+00 2.08418000e+01	N
atom  9.39447000e-01 9.17204000e+00 2.39639000e+01	N
atom  1.12718000e+00 6.30347000e+00 2.40665000e+01	N
atom  6.86446000e-01 3.06900000e+00 2.50349000e+01	Si
atom  1.77147000e+00 3.83167000e-01 2.79305000e+01	N
atom  1.45286000e+00 2.87538000e+00 2.78135000e+01	N
atom  8.54732000e-01 1.40240000e+00 2.54362000e+01	N
atom  3.74993000e-01 4.52287000e+00 2.60005000e+01	N
atom  9.94780000e-01 4.52071000e+00 2.75727000e+01	Si
atom  3.09274000e-01 1.42273000e+00 2.82525000e+01	Si
atom  -1.67161000e-01 4.94015000e+00 2.88366000e+01	N
atom  -3.84970000e-01 6.56942000e+00 2.95893000e+01	Si
atom  9.99526000e-02 8.96231000e+00 2.74080000e+01	Si
atom  1.33788000e+00 1.01205000e+01 2.71305000e+01	N
atom  -1.55003000e-01 7.93894000e+00 2.60324000e+01	N
atom  1.19307000e+00 7.76888000e+00 2.49389000e+01	Si
atom  2.41519000e-01 7.85587000e+00 2.86466000e+01	N
atom  8.43200000e-01 2.45055000e+00 3.33588000e+01	Si
atom  4.40410000e-01 3.81707000e+00 3.44382000e+01	N
atom  4.32172000e-01 1.31162000e+00 3.00200000e+01	N
atom  1.28102000e+00 5.22552000e+00 3.38928000e+01	Si
atom  1.16930000e+00 1.19662000e+00 3.45768000e+01	N
atom  8.99604000e-01 8.98844000e+00 3.26094000e+01	N
atom  5.33026000e-01 6.67093000e+00 3.10388000e+01	N
atom  9.09905000e-02 6.48967000e+00 3.38694000e+01	N
atom  3.16624000e-03 7.53156000e+00 3.24387000e+01	Si
atom  1.30128000e+00 1.62661000e+00 3.76578000e+01	N
atom  -3.80462000e-01 1.74164000e+00 3.80256000e+01	Si
atom  2.00505000e+00 1.32548000e+00 3.61223000e+01	Si
atom  1.48432000e+00 1.02338000e+01 3.86000000e+01	Si
atom  1.51712000e+00 7.19932000e+00 3.82827000e+01	Si
atom  6.73794000e-01 7.26594000e+00 3.67993000e+01	N
atom  1.30043000e+00 8.61845000e+00 3.92358000e+01	N
atom  1.39179000e+00 9.49862000e+00 3.56747000e+01	Si
atom  1.57067000e+00 5.76445000e+00 3.92308000e+01	N
atom  -3.76074000e-01 9.36765000e+00 3.57745000e+01	N
atom  1.27158000e+00 1.10804000e+01 3.73271000e+00	N
atom  -1.09381000e-01 1.29319000e+01 2.00095000e+00	N
atom  1.40520000e+00 1.25613000e+01 2.69045000e+00	Si
atom  1.71322000e+00 1.38149000e+01 3.82943000e+00	N
atom  -1.83978000e-01 1.14815000e+01 4.75222000e+00	Si
atom  4.25291000e-01 1.45645000e+01 4.78187000e+00	Si
atom  8.15037000e-01 1.54441000e+01 8.03146000e-01	N
atom  4.33243000e-01 1.71263000e+01 7.12950000e-01	Si
atom  1.15876000e+00 1.98258000e+01 8.17945000e-01	Si
atom  1.48447000e+00 1.70126000e+01 3.96122000e+00	N
atom  -1.75280000e-01 1.72445000e+01 3.75671000e+00	Si
atom  1.67146000e+00 1.82540000e+01 2.99666000e-01	N
atom  -3.95680000e-01 1.77970000e+01 2.12700000e+00	N
atom  1.26005000e+00 2.01982000e+01 2.50222000e+00	N
atom  -3.79039000e-02 1.04750000e+01 6.10008000e+00	N
atom  7.55008000e-01 1.20508000e+01 8.12247000e+00	N
atom  -2.15477000e-01 1.30849000e+01 5.51618000e+00	N
atom  1.27018000e+00 1.04711000e+01 7.30554000e+00	Si
atom  -4.90823000e-01 1.28154000e+01 7.20172000e+00	Si
atom  9.40850000e-01 1.18067000e+01 9.77505000e+00	Si
atom  1.00061000e+00 1.62694000e+01 8.84310000e+00	N
atom  9.52187000e-01 1.54571000e+01 6.20724000e+00	N
atom  1.23252000e+00 1.83410000e+01 7.15592000e+00	N
atom  1.31517000e+00 1.79577000e+01 8.86252000e+00	Si
atom  4.85002000e-01 1.92734000e+01 9.54887000e+00	N
atom  -7.96771000e-02 1.58105000e+01 7.57683000e+00	Si
atom  4.16838000e-01 1.30571000e+01 1.08791000e+01	N
atom  1.31693000e+00 1.18374000e+01 1.37732000e+01	Si
atom  1.48546000e+00 1.42629000e+01 1.16381000e+01	Si
atom  -2.00694000e-01 1.06799000e+01 1.06061000e+01	N
atom  -4.13443000e-01 1.19723000e+01 1.34655000e+01	N
atom  1.67623000e+00 1.03652000e+01 1.28153000e+01	N
atom  1.33176000e+00 2.01447000e+01 1.44404000e+01	N
atom  1.05016000e+00 1.63089000e+01 1.43421000e+01	N
atom  6.75664000e-01 1.57646000e+01 1.16830000e+01	N
atom  5.46395000e-01 1.84722000e+01 1.23007000e+01	N
atom  1.34012000e+00 1.69592000e+01 1.27059000e+01	Si
atom  1.51118000e+00 1.99061000e+01 1.27494000e+01	Si
atom  1.70985000e+00 1.13955000e+01 1.54066000e+01	N
atom  -1.46469000e-01 1.32638000e+01 1.81017000e+01	N
atom  1.36062000e+00 1.40457000e+01 1.59932000e+01	N
atom  3.92884000e-02 1.45513000e+01 1.69508000e+01	Si
atom  7.81115000e-01 1.32772000e+01 1.96652000e+01	Si
atom  1.31234000e+00 1.91389000e+01 1.87140000e+01	Si
atom  -4.02602000e-01 1.87620000e+01 1.84077000e+01	N
atom  6.45187000e-01 1.63476000e+01 1.94429000e+01	Si
atom  -3.29516000e-02 1.60286000e+01 1.78439000e+01	N
atom  1.52850000e+00 1.78121000e+01 1.98009000e+01	N
atom  4.34174000e-01 1.25522000e+01 2.39773000e+01	N
atom  1.25466000e+00 1.40922000e+01 2.39144000e+01	Si
atom  2.44028000e-01 1.19248000e+01 2.22521000e+01	Si
atom  1.44003000e+00 1.48885000e+01 1.99541000e+01	N
atom  -1.65622000e-02 1.52904000e+01 2.42175000e+01	N
atom  -3.59338000e-01 1.30399000e+01 2.10047000e+01	N
atom  7.34013000e-01 1.81190000e+01 2.25455000e+01	N
atom  1.60992000e+00 1.95101000e+01 2.33723000e+01	Si
atom  1.09484000e+00 1.14496000e+01 2.81693000e+01	Si
atom  8.77771000e-01 1.39918000e+01 2.67229000e+01	Si
atom  -4.11149000e-01 1.16430000e+01 2.90551000e+01	N
atom  -5.26258000e-01 1.29849000e+01 2.66826000e+01	N
atom  4.73786000e-01 1.64471000e+01 2.54409000e+01	Si
atom  -3.33196000e-01 1.84700000e+01 2.71637000e+01	Si
atom  -4.66476000e-01 1.78527000e+01 2.55440000e+01	N
atom  1.42604000e+00 1.85398000e+01 2.73870000e+01	N
atom  3.53935000e-01 1.56517000e+01 2.69060000e+01	N
atom  1.11217000e+00 1.61583000e+01 2.95260000e+01	N
atom  -2.15419000e-01 1.58165000e+01 2.85190000e+01	Si
atom  1.16357000e+00 1.16524000e+01 3.19642000e+01	N
atom  2.72735000e-01 1.22873000e+01 3.05400000e+01	Si
atom  1.29444000e+00 1.36970000e+01 3.04254000e+01	N
atom  1.09319000e+00 1.48843000e+01 3.26816000e+01	N
atom  5.04042000e-01 1.06074000e+01 3.31618000e+01	Si
atom  1.54514000e+00 1.07885000e+01 3.45648000e+01	N
atom  1.90934000e+00 1.33390000e+01 3.20539000e+01	Si
atom  8.23671000e-01 1.59179000e+01 3.12871000e+01	Si
atom  5.26864000e-01 1.76688000e+01 3.15606000e+01	N
atom  1.18440000e+00 1.39768000e+01 3.68988000e+01	Si
atom  -1.34558000e-02 1.09583000e+01 3.81692000e+01	N
atom  1.31481000e+00 1.49808000e+01 3.91147000e+01	Si
atom  2.55182000e-01 1.51811000e+01 3.49822000e+01	N
atom  -3.25258000e-01 1.31170000e+01 3.65421000e+01	N
atom  1.80993000e+00 1.34071000e+01 3.83970000e+01	N
atom  7.97781000e-01 1.55305000e+01 3.75372000e+01	N
atom  3.36425000e-01 1.64425000e+01 3.61365000e+01	Si
atom  5.42087000e-01 2.00007000e+01 3.75911000e+01	N
atom  8.91170000e-01 1.92982000e+01 3.60465000e+01	Si
atom  1.48313000e+00 1.76057000e+01 3.57594000e+01	N
atom  -3.85923000e-01 1.93298000e+01 3.49302000e+01	N
atom  -6.26765000e-02 2.20071000e+01 4.36585000e+00	N
atom  1.04154000e+00 2.43504000e+01 3.63249000e+00	N
atom  -1.92009000e-01 2.11688000e+01 2.79713000e+00	Si
atom  6.77689000e-01 2.50820000e+01 3.96700000e-01	Si
atom  -2.24954000e-01 2.24899000e+01 1.72137000e+00	N
atom  1.67417000e-01 2.22453000e+01 9.01082000e-02	Si
atom  1.41153000e+00 2.29280000e+01 4.68614000e+00	Si
atom  1.58268000e+00 2.11419000e+01 -2.12559000e-01	N
atom  2.71043000e-01 2.45910000e+01 8.59694000e+00	N
atom  -1.36273000e-01 2.19184000e+01 9.01845000e+00	N
atom  1.17171000e+00 2.31112000e+01 6.40317000e+00	N
atom  -7.82798000e-02 2.31304000e+01 7.66734000e+00	Si
atom  4.42902000e-01 2.04709000e+01 8.27019000e+00	Si
atom  1.86399000e+00 2.07524000e+01 7.35004000e+00	N
atom  1.92569000e+00 2.46943000e+01 9.23929000e+00	Si
atom  1.67661000e+00 2.91335000e+01 5.10370000e+00	N
atom  1.69797000e+00 2.74426000e+01 4.94535000e+00	Si
atom  2.13331000e-01 2.69304000e+01 5.65166000e+00	N
atom  3.48932000e-01 3.02603000e+01 5.01245000e+00	Si
atom  4.49408000e-01 2.10741000e+01 1.20282000e+01	N
atom  2.55635000e-01 2.26094000e+01 1.27802000e+01	Si
atom  1.75350000e+00 2.34025000e+01 1.29591000e+01	N
atom  2.20848000e+00 2.49987000e+01 1.09461000e+01	N
atom  5.06807000e-01 2.71836000e+01 1.27016000e+01	N
atom  5.06025000e-01 2.97329000e+01 1.04406000e+01	Si
atom  1.94903000e+00 2.79975000e+01 1.23141000e+01	Si
atom  -6.33546000e-02 2.10179000e+01 1.50902000e+01	Si
atom  5.64964000e-01 2.07358000e+01 1.96357000e+01	N
atom  6.41851000e-01 2.47581000e+01 1.69274000e+01	N
atom  9.53149000e-01 2.15030000e+01 1.64607000e+01	N
atom  1.32137000e+00 2.30855000e+01 1.69315000e+01	Si
atom  1.71831000e+00 2.48025000e+01 1.87704000e+01	Si
atom  1.72738000e+00 2.30668000e+01 1.85866000e+01	N
atom  1.30682000e+00 2.91296000e+01 1.60618000e+01	N
atom  3.73272000e-01 2.58158000e+01 1.93460000e+01	N
atom  6.77079000e-01 2.75370000e+01 1.94519000e+01	Si
atom  1.40790000e-01 2.86162000e+01 1.81460000e+01	N
atom  1.42387000e+00 2.97359000e+01 1.76572000e+01	Si
atom  -4.44920000e-01 2.98653000e+01 1.93629000e+01	Si
atom  3.19596000e-01 2.35228000e+01 2.34450000e+01	N
atom  4.20356000e-01 2.07327000e+01 2.33263000e+01	N
atom  -8.37979000e-02 2.30030000e+01 2.17755000e+01	Si
atom  3.16631000e-01 2.20623000e+01 2.43986000e+01	Si
atom  1.46377000e+00 2.27204000e+01 2.12302000e+01	N
atom  6.13693000e-01 2.51481000e+01 2.39832000e+01	Si
atom  6.64212000e-01 2.93534000e+01 2.21620000e+01	Si
atom  6.38169000e-02 2.87623000e+01 2.06254000e+01	N
atom  -5.27071000e-01 2.59209000e+01 2.29786000e+01	N
atom  -6.31526000e-01 2.90975000e+01 2.32429000e+01	N
atom  3.74553000e-02 2.20394000e+01 2.81549000e+01	N
atom  8.68174000e-01 2.49504000e+01 2.58326000e+01	N
atom  1.60807000e+00 2.22388000e+01 2.55337000e+01	N
atom  1.71229000e+00 2.20364000e+01 2.84671000e+01	Si
atom  2.87537000e-01 2.65102000e+01 2.64242000e+01	Si
atom  -7.28132000e-02 2.97967000e+01 2.86657000e+01	N
atom  1.78719000e+00 2.98846000e+01 2.64595000e+01	N
atom  -1.69930000e-01 2.81057000e+01 2.81602000e+01	Si
atom  1.34658000e+00 2.73201000e+01 2.75627000e+01	N
atom  4.95586000e-01 2.72206000e+01 2.48412000e+01	N
atom  6.26464000e-01 2.14883000e+01 3.33543000e+01	N
atom  8.97360000e-01 2.31881000e+01 3.36770000e+01	Si
atom  1.76716000e+00 2.42101000e+01 3.24905000e+01	N
atom  1.49058000e+00 2.53641000e+01 2.99930000e+01	N
atom  -4.67262000e-02 2.87272000e+01 3.13370000e+01	N
atom  1.51769000e+00 2.83846000e+01 3.16059000e+01	Si
atom  -3.09638000e-01 2.52526000e+01 3.01202000e+01	Si
atom  -3.87530000e-01 3.01362000e+01 3.02684000e+01	Si
atom  1.04026000e+00 2.53013000e+01 3.47944000e+01	N
atom  1.83429000e+00 2.73391000e+01 3.29752000e+01	N
atom  9.24967000e-01 2.36931000e+01 3.94152000e+01	N
atom  7.04766000e-01 2.64436000e+01 3.93351000e+01	N
atom  1.03286000e+00 2.62703000e+01 3.76379000e+01	Si
atom  1.70602000e+00 2.79677000e+01 3.92854000e+01	Si
atom  6.17264000e-01 2.92740000e+01 3.93042000e+01	N
atom  7.45566000e-02 3.29267000e+01 1.85168000e+00	Si
atom  1.98452000e-01 3.47446000e+01 3.85224000e+00	N
atom  1.49119000e-01 3.12036000e+01 1.26219000e+00	N
atom  1.72243000e+00 3.32526000e+01 2.26731000e+00	N
atom  -1.13975000e-01 3.40227000e+01 5.57106000e-01	N
atom  4.85455000e-01 3.20661000e+01 4.83576000e+00	N
atom  2.66885000e-01 3.57214000e+01 9.04695000e-01	Si
atom  7.20541000e-01 3.77773000e+01 4.01734000e+00	N
atom  1.46663000e+00 3.60815000e+01 2.07130000e+00	N
atom  -2.78062000e-01 3.63611000e+01 3.41826000e+00	Si
atom  1.26516000e+00 4.00510000e+01 8.69713000e-01	Si
atom  -3.19701000e-01 3.03637000e+01 6.62909000e+00	N
atom  4.78536000e-01 3.15334000e+01 7.82109000e+00	Si
atom  1.15029000e+00 3.09527000e+01 9.34267000e+00	N
atom  1.17265000e-01 3.49339000e+01 9.12460000e+00	N
atom  1.82438000e+00 3.25629000e+01 7.27967000e+00	N
atom  4.00673000e-01 3.69798000e+01 6.84842000e+00	N
atom  -3.30087000e-01 3.77416000e+01 5.51827000e+00	Si
atom  1.59453000e+00 3.81359000e+01 7.21822000e+00	Si
atom  7.75541000e-01 3.96348000e+01 7.54767000e+00	N
atom  4.93244000e-01 3.08063000e+01 1.18238000e+01	N
atom  1.15861000e+00 3.44516000e+01 1.03843000e+01	Si
atom  1.17633000e+00 3.16306000e+01 1.45047000e+01	N
atom  -1.84066000e-01 3.35497000e+01 1.12987000e+01	N
atom  1.69532000e+00 3.07830000e+01 1.31165000e+01	Si
atom  7.78134000e-01 3.54138000e+01 1.31620000e+01	N
atom  2.04050000e-01 3.94296000e+01 1.27778000e+01	Si
atom  2.67016000e-01 3.79056000e+01 1.19219000e+01	N
atom  1.56833000e+00 3.68258000e+01 1.22923000e+01	Si
atom  1.82861000e+00 3.99404000e+01 1.32202000e+01	N
atom  1.86076000e+00 3.55534000e+01 1.44283000e+01	Si
atom  5.38346000e-01 3.09838000e+01 1.84546000e+01	N
atom  1.21725000e+00 3.34140000e+01 1.69600000e+01	N
atom  -3.07712000e-02 3.23804000e+01 1.76339000e+01	Si
atom  1.53379000e+00 3.51146000e+01 1.72278000e+01	Si
atom  6.41939000e-01 3.61661000e+01 1.83992000e+01	N
atom  -3.43202000e-01 3.88390000e+01 1.89673000e+01	Si
atom  -4.06242000e-01 3.68475000e+01 1.67730000e+01	Si
atom  1.67490000e+00 3.66837000e+01 1.97192000e+01	Si
atom  -8.24660000e-02 3.85114000e+01 1.72779000e+01	N
atom  9.72824000e-01 3.60670000e+01 1.58478000e+01	N
atom  1.52632000e-01 3.97618000e+01 1.60254000e+01	Si
atom  8.31043000e-01 3.24111000e+01 2.29555000e+01	Si
atom  1.25571000e+00 3.09859000e+01 2.20104000e+01	N
atom  2.94522000e-01 3.49282000e+01 2.16490000e+01	Si
atom  -9.08787000e-02 3.32900000e+01 2.17516000e+01	N
atom  4.86424000e-02 3.18715000e+01 2.43508000e+01	N
atom  1.65351000e+00 3.35909000e+01 2.39696000e+01	N
atom  1.19764000e+00 3.52786000e+01 2.44421000e+01	Si
atom  -2.29778000e-02 3.55922000e+01 2.32257000e+01	N
atom  1.19459000e+00 3.90450000e+01 2.17344000e+01	Si
atom  6.22489000e-01 3.81032000e+01 2.03495000e+01	N
atom  1.52426000e+00 3.84085000e+01 2.32008000e+01	N
atom  -1.87467000e-01 4.01358000e+01 2.19566000e+01	N
atom  1.77826000e+00 3.52491000e+01 2.07774000e+01	N
atom  2.53074000e-01 3.05385000e+01 2.70330000e+01	Si
atom  -4.67285000e-02 3.22219000e+01 2.70544000e+01	N
atom  6.56192000e-01 3.47048000e+01 2.59695000e+01	N
atom  8.85716000e-01 3.29900000e+01 2.56468000e+01	Si
atom  1.50359000e+00 3.46136000e+01 2.96428000e+01	Si
atom  3.96143000e-02 3.50790000e+01 2.87207000e+01	N
atom  4.59303000e-01 3.84027000e+01 2.93746000e+01	N
atom  1.08264000e+00 3.29508000e+01 3.31668000e+01	N
atom  4.37879000e-01 3.44375000e+01 3.10491000e+01	N
atom  1.06310000e+00 3.46082000e+01 3.26242000e+01	Si
atom  7.54384000e-01 3.12677000e+01 3.09599000e+01	N
atom  -1.01379000e-01 3.22745000e+01 3.42414000e+01	Si
atom  6.86070000e-01 3.07635000e+01 3.41163000e+01	N
atom  1.58133000e+00 3.13904000e+01 3.25084000e+01	Si
atom  8.46322000e-02 3.55578000e+01 3.36076000e+01	N
atom  1.15953000e+00 3.96224000e+01 3.37567000e+01	Si
atom  5.53155000e-01 3.86947000e+01 3.10448000e+01	Si
atom  1.42545000e+00 3.74201000e+01 3.19728000e+01	N
atom  3.84885000e-01 3.82563000e+01 3.44216000e+01	N
atom  4.45294000e-02 3.72493000e+01 3.30558000e+01	Si
atom  1.43428000e-01 3.98629000e+01 3.23419000e+01	N
atom  4.05851000e-02 3.32826000e+01 3.56349000e+01	N
atom  1.29937000e+00 3.41198000e+01 3.79008000e+01	N
atom  6.53702000e-01 3.26927000e+01 3.71270000e+01	Si
atom  -3.27731000e-01 3.21811000e+01 3.84261000e+01	N
atom  5.92307000e-01 3.09863000e+01 3.95398000e+01	Si
atom  1.66268000e+00 3.13241000e+01 3.68277000e+01	N
atom  -3.87896000e-01 3.49301000e+01 3.52042000e+01	Si
atom  -2.69180000e-02 3.78156000e+01 3.60654000e+01	Si
atom  1.25801000e+00 3.80156000e+01 3.90020000e+01	Si
atom  9.32091000e-01 3.85870000e+01 3.72413000e+01	N
atom  -8.78964000e-02 3.60880000e+01 3.64200000e+01	N
atom  1.24232000e-01 3.54655000e+01 3.80493000e+01	Si
atom  6.94836000e-01 3.64385000e+01 3.93758000e+01	N
atom  2.29521000e-01 3.90425000e+01 3.98861000e+01	N
atom  2.48692000e+00 2.93231000e+00 2.92759000e+00	N
atom  3.52991000e+00 3.43860000e+00 4.23469000e+00	Si
atom  3.27306000e+00 5.13465000e+00 1.26628000e+00	N
atom  2.50977000e+00 9.44527000e-01 1.89144000e-03	N
atom  4.23013000e+00 4.92805000e-01 3.81130000e+00	Si
atom  1.96499000e+00 4.33543000e+00 2.12806000e+00	Si
atom  3.25263000e+00 9.31594000e+00 4.25542000e+00	N
atom  2.09732000e+00 9.29566000e+00 1.72656000e+00	N
atom  2.01348000e+00 4.80283000e+00 8.44009000e+00	N
atom  2.45854000e+00 4.02535000e+00 5.56043000e+00	N
atom  2.22033000e+00 2.06386000e+00 7.59138000e+00	N
atom  3.93767000e+00 2.06681000e+00 7.89094000e+00	Si
atom  4.12339000e+00 2.49388000e+00 9.50816000e+00	N
atom  2.95180000e+00 7.58590000e+00 9.15391000e+00	N
atom  3.21330000e+00 6.57141000e+00 5.05858000e+00	N
atom  3.18652000e+00 8.18559000e+00 5.60270000e+00	Si
atom  3.29376000e+00 5.90146000e+00 9.04266000e+00	Si
atom  4.21580000e+00 8.62960000e+00 9.76473000e+00	Si
atom  2.64999000e+00 4.67201000e+00 1.31690000e+01	N
atom  3.13315000e+00 1.71256000e+00 1.08858000e+01	Si
atom  2.43215000e+00 4.26917000e+00 1.13622000e+01	Si
atom  3.56661000e+00 1.93830000e+00 1.43357000e+01	N
atom  3.86216000e+00 3.54469000e+00 1.36935000e+01	Si
atom  4.17889000e+00 5.94505000e-01 1.19064000e+01	N
atom  2.36400000e+00 3.80509000e-01 9.82737000e+00	N
atom  3.62114000e+00 5.44387000e+00 1.07023000e+01	N
atom  1.94982000e+00 1.23766000e+00 1.44113000e+01	Si
atom  3.83757000e+00 9.19279000e+00 1.14098000e+01	N
atom  3.30919000e+00 6.29297000e+00 1.34373000e+01	Si
atom  1.97154000e+00 7.26633000e+00 1.29073000e+01	N
atom  2.82613000e+00 8.82512000e-01 1.98201000e+01	Si
atom  2.92923000e+00 4.59289000e+00 1.97355000e+01	N
atom  3.43192000e+00 6.79588000e+00 1.51131000e+01	N
atom  3.09858000e+00 6.07981000e+00 1.88422000e+01	Si
atom  2.64182000e+00 9.08778000e+00 1.66898000e+01	N
atom  3.40754000e+00 5.28951000e+00 1.59990000e+01	Si
atom  1.94264000e+00 9.35426000e+00 1.95450000e+01	N
atom  3.82411000e+00 8.41080000e+00 1.56351000e+01	Si
atom  4.11175000e+00 5.69206000e+00 1.75105000e+01	N
atom  3.62231000e+00 7.23702000e+00 1.99424000e+01	N
atom  3.67436000e+00 4.78160000e+00 2.12628000e+01	Si
atom  3.08118000e+00 9.65554000e-01 2.36759000e+01	N
atom  3.44551000e+00 2.60516000e+00 2.34474000e+01	Si
atom  2.06218000e+00 3.57597000e+00 2.40491000e+01	N
atom  3.97502000e+00 3.12416000e+00 2.18545000e+01	N
atom  2.49756000e+00 5.28044000e+00 2.40694000e+01	Si
atom  2.75484000e+00 5.60994000e+00 2.23609000e+01	N
atom  2.74028000e+00 9.05110000e+00 2.19484000e+01	N
atom  2.25494000e+00 8.02218000e+00 2.07094000e+01	Si
atom  2.31247000e+00 1.00610000e+01 2.32674000e+01	Si
atom  3.34401000e+00 1.03213000e+01 2.47143000e+01	N
atom  2.84372000e+00 1.80632000e+00 2.79189000e+01	Si
atom  3.64015000e+00 1.60104000e+00 2.63918000e+01	N
atom  2.43640000e+00 7.12065000e-01 2.53328000e+01	Si
atom  3.30963000e+00 1.81972000e+00 2.96023000e+01	N
atom  2.54204000e+00 7.92795000e+00 2.60091000e+01	N
atom  2.74168000e+00 9.64014000e+00 2.62176000e+01	Si
atom  3.40126000e+00 6.49950000e+00 2.64522000e+01	Si
atom  2.52547000e+00 5.40871000e+00 2.74529000e+01	N
atom  3.83341000e+00 5.45763000e+00 2.86444000e+01	Si
atom  4.02512000e+00 9.95626000e+00 2.74219000e+01	N
atom  3.83857000e+00 5.63468000e+00 2.49945000e+01	N
atom  3.12285000e+00 3.63906000e+00 3.22432000e+01	Si
atom  2.00502000e+00 1.24067000e+00 3.06658000e+01	Si
atom  3.85006000e+00 3.61128000e+00 3.38763000e+01	N
atom  1.98231000e+00 4.90860000e+00 3.23411000e+01	N
atom  1.99062000e+00 2.26108000e+00 3.21134000e+01	N
atom  3.24449000e+00 1.02108000e+01 3.26645000e+01	N
atom  3.43950000e+00 6.09018000e+00 3.01037000e+01	N
atom  2.51683000e+00 8.72169000e+00 3.31531000e+01	Si
atom  3.16420000e+00 7.55952000e+00 3.20930000e+01	N
atom  2.23517000e+00 6.25568000e+00 3.12946000e+01	Si
atom  2.74489000e+00 1.90375000e+00 3.85601000e+01	Si
atom  3.19663000e+00 2.61253000e+00 3.63446000e+01	N
atom  3.11212000e+00 3.53680000e+00 3.89870000e+01	N
atom  3.48679000e+00 4.06322000e+00 3.55227000e+01	Si
atom  3.17936000e+00 5.17169000e+00 3.95339000e+01	Si
atom  2.36650000e+00 8.25372000e+00 3.48703000e+01	N
atom  2.13991000e+00 6.96834000e+00 3.59155000e+01	Si
atom  3.09703000e+00 6.87556000e+00 3.73889000e+01	N
atom  2.42110000e+00 5.39385000e+00 3.51705000e+01	N
atom  2.28375000e+00 9.94119000e+00 3.70368000e+01	N
atom  2.93166000e+00 1.20926000e+01 1.96308000e+00	N
atom  3.36263000e+00 1.37280000e+01 4.13776000e+00	Si
atom  4.00719000e+00 1.21230000e+01 4.54442000e+00	N
atom  3.14521000e+00 1.04846000e+01 1.15705000e+00	Si
atom  3.92028000e+00 1.37073000e+01 -4.80644000e-03	N
atom  2.75739000e+00 1.09480000e+01 4.77643000e+00	Si
atom  4.18391000e+00 1.45026000e+01 2.74082000e+00	N
atom  3.05947000e+00 1.77502000e+01 4.29705000e+00	Si
atom  2.64160000e+00 1.93445000e+01 4.79669000e+00	N
atom  4.13266000e+00 1.73939000e+01 2.93244000e+00	N
atom  2.82221000e+00 1.06644000e+01 6.57572000e+00	N
atom  3.61912000e+00 1.44777000e+01 5.64127000e+00	N
atom  3.93551000e+00 1.17433000e+01 9.38404000e+00	Si
atom  3.92843000e+00 1.28190000e+01 8.02058000e+00	N
atom  2.56465000e+00 1.58541000e+01 9.46265000e+00	Si
atom  3.37841000e+00 1.53968000e+01 7.96850000e+00	N
atom  3.54562000e+00 1.70390000e+01 5.82140000e+00	N
atom  2.61454000e+00 1.57091000e+01 6.42147000e+00	Si
atom  2.54342000e+00 1.93921000e+01 6.53147000e+00	Si
atom  4.22482000e+00 1.92103000e+01 7.04076000e+00	N
atom  2.72403000e+00 1.76790000e+01 9.80372000e+00	N
atom  2.93043000e+00 1.46982000e+01 1.07434000e+01	N
atom  3.65543000e+00 1.35061000e+01 1.35703000e+01	Si
atom  3.01778000e+00 1.06407000e+01 1.18863000e+01	Si
atom  2.56609000e+00 1.14311000e+01 1.03537000e+01	N
atom  4.05360000e+00 1.16998000e+01 1.28413000e+01	N
atom  2.01896000e+00 1.32658000e+01 1.30506000e+01	N
atom  3.59627000e+00 1.51525000e+01 1.43278000e+01	N
atom  3.06048000e+00 1.72276000e+01 1.25230000e+01	N
atom  3.48782000e+00 1.82892000e+01 1.11932000e+01	Si
atom  3.05753000e+00 1.98098000e+01 1.20136000e+01	N
atom  4.16404000e+00 1.67080000e+01 1.37842000e+01	Si
atom  3.88819000e+00 1.27113000e+01 1.51916000e+01	N
atom  3.80916000e+00 1.26262000e+01 1.93732000e+01	Si
atom  2.47660000e+00 1.27893000e+01 1.62570000e+01	Si
atom  3.53519000e+00 1.33512000e+01 1.76977000e+01	N
atom  4.19663000e+00 1.50518000e+01 1.75272000e+01	Si
atom  2.10802000e+00 1.21231000e+01 1.96552000e+01	N
atom  2.14221000e+00 2.02256000e+01 1.60186000e+01	Si
atom  2.01555000e+00 1.87891000e+01 1.70594000e+01	N
atom  3.40854000e+00 1.77871000e+01 1.66501000e+01	Si
atom  3.91939000e+00 1.78355000e+01 1.50000000e+01	N
atom  3.00509000e+00 1.60994000e+01 1.68035000e+01	N
atom  2.18756000e+00 1.54052000e+01 1.53223000e+01	Si
atom  4.22149000e+00 2.00603000e+01 1.79203000e+01	Si
atom  2.88418000e+00 2.02818000e+01 1.89991000e+01	N
atom  2.74413000e+00 1.49625000e+01 2.10742000e+01	Si
atom  2.30592000e+00 1.40109000e+01 2.25437000e+01	N
atom  2.47763000e+00 1.06280000e+01 2.06675000e+01	Si
atom  3.37571000e+00 1.26525000e+01 2.20525000e+01	Si
atom  4.00383000e+00 1.37855000e+01 2.06567000e+01	N
atom  4.13227000e+00 1.12435000e+01 2.09018000e+01	N
atom  1.87594000e+00 1.14062000e+01 2.21870000e+01	N
atom  2.10986000e+00 1.79457000e+01 2.14378000e+01	Si
atom  3.08019000e+00 1.64992000e+01 2.16852000e+01	N
atom  2.76393000e+00 1.95119000e+01 2.21177000e+01	N
atom  3.53966000e+00 1.48879000e+01 2.91620000e+01	N
atom  2.77957000e+00 1.32949000e+01 2.94480000e+01	Si
atom  2.20163000e+00 1.11623000e+01 2.95334000e+01	N
atom  2.08419000e+00 1.42430000e+01 2.53828000e+01	N
atom  3.78555000e+00 1.07997000e+01 2.88683000e+01	Si
atom  1.76602000e+00 1.30990000e+01 2.79424000e+01	N
atom  2.15481000e+00 1.69229000e+01 2.51700000e+01	N
atom  2.46631000e+00 1.83576000e+01 2.59967000e+01	Si
atom  3.44786000e+00 1.75980000e+01 2.87423000e+01	N
atom  4.22862000e+00 1.56480000e+01 2.67530000e+01	N
atom  2.56194000e+00 1.91848000e+01 2.86753000e+01	Si
atom  3.25333000e+00 1.56113000e+01 2.53087000e+01	Si
atom  2.83280000e+00 1.63200000e+01 2.97020000e+01	Si
atom  2.29828000e+00 1.97011000e+01 2.49513000e+01	N
atom  4.20101000e+00 1.84682000e+01 2.63589000e+01	N
atom  3.42947000e+00 1.27638000e+01 3.12045000e+01	N
atom  2.58981000e+00 1.30237000e+01 3.36944000e+01	N
atom  3.13717000e+00 1.14338000e+01 3.40696000e+01	Si
atom  2.77727000e+00 1.10764000e+01 3.11972000e+01	Si
atom  1.99920000e+00 1.46567000e+01 3.44057000e+01	Si
atom  3.01838000e+00 1.60600000e+01 3.40310000e+01	N
atom  2.87702000e+00 1.66574000e+01 3.13604000e+01	N
atom  2.62519000e+00 1.95426000e+01 3.03932000e+01	N
atom  2.32871000e+00 1.87765000e+01 3.32733000e+01	N
atom  3.95524000e+00 1.61015000e+01 3.25860000e+01	Si
atom  2.17665000e+00 1.83331000e+01 3.16005000e+01	Si
atom  2.74432000e+00 1.76729000e+01 3.45540000e+01	Si
atom  3.94582000e+00 1.21544000e+01 3.75128000e+01	N
atom  2.61077000e+00 1.41729000e+01 3.59820000e+01	N
atom  3.13642000e+00 1.25431000e+01 3.89996000e+01	Si
atom  2.69907000e+00 1.09739000e+01 3.95816000e+01	N
atom  3.91811000e+00 1.04939000e+01 3.68887000e+01	Si
atom  4.13970000e+00 1.35574000e+01 3.64699000e+01	Si
atom  4.27640000e+00 1.07949000e+01 3.52177000e+01	N
atom  4.19174000e+00 1.81282000e+01 3.54459000e+01	N
atom  3.06667000e+00 1.78628000e+01 3.93126000e+01	Si
atom  2.76509000e+00 1.61309000e+01 3.91430000e+01	N
atom  2.91834000e+00 1.91327000e+01 3.79996000e+01	N
atom  4.27244000e+00 1.85918000e+01 3.71034000e+01	Si
atom  2.72414000e+00 2.21349000e+01 3.94744000e+00	N
atom  3.65977000e+00 2.43974000e+01 6.22748000e-01	Si
atom  3.86917000e+00 2.48858000e+01 3.55570000e+00	N
atom  2.68079000e+00 2.04617000e+01 3.49297000e+00	Si
atom  4.03579000e+00 2.31344000e+01 3.47278000e+00	Si
atom  2.17402000e+00 2.50758000e+01 1.24756000e+00	N
atom  3.97960000e+00 2.03498000e+01 2.32035000e+00	N
atom  4.12020000e+00 2.30884000e+01 1.69948000e+00	N
atom  2.27166000e+00 2.53197000e+01 2.94332000e+00	Si
atom  3.15369000e+00 2.78963000e+01 2.24688000e+00	Si
atom  2.86003000e+00 2.80647000e+01 5.43379000e-01	N
atom  3.11703000e+00 2.95302000e+01 2.87272000e+00	N
atom  3.22178000e+00 2.97077000e+01 4.57095000e+00	Si
atom  2.13014000e+00 2.69987000e+01 3.27710000e+00	N
atom  2.55169000e+00 2.24171000e+01 7.27266000e+00	Si
atom  2.80319000e+00 2.32048000e+01 8.83848000e+00	N
atom  3.63112000e+00 2.42365000e+01 6.29084000e+00	N
atom  4.07953000e+00 2.23308000e+01 9.63410000e+00	Si
atom  4.20772000e+00 2.18796000e+01 6.91143000e+00	N
atom  3.84240000e+00 2.55401000e+01 5.23029000e+00	Si
atom  3.47706000e+00 2.69570000e+01 7.63025000e+00	Si
atom  2.85880000e+00 2.67874000e+01 6.03116000e+00	N
atom  2.73662000e+00 2.62604000e+01 9.02005000e+00	N
atom  3.42934000e+00 2.90541000e+01 9.68844000e+00	Si
atom  3.52232000e+00 2.86850000e+01 7.99956000e+00	N
atom  3.12085000e+00 2.40724000e+01 1.19853000e+01	Si
atom  2.92989000e+00 2.31907000e+01 1.42122000e+01	Si
atom  3.57004000e+00 2.25445000e+01 1.12461000e+01	N
atom  3.82710000e+00 2.17778000e+01 1.38771000e+01	N
atom  3.89657000e+00 2.44908000e+01 1.36694000e+01	N
atom  4.10063000e+00 2.11798000e+01 1.22071000e+01	Si
atom  3.92556000e+00 2.61916000e+01 1.38606000e+01	Si
atom  3.27820000e+00 2.70151000e+01 1.24221000e+01	N
atom  3.51765000e+00 2.62668000e+01 1.06728000e+01	Si
atom  2.10020000e+00 2.91334000e+01 1.35228000e+01	N
atom  1.96045000e+00 2.87515000e+01 1.07565000e+01	N
atom  2.59792000e+00 2.36989000e+01 1.58217000e+01	N
atom  3.77357000e+00 2.06865000e+01 1.63340000e+01	N
atom  2.06276000e+00 2.17167000e+01 1.97486000e+01	Si