lattice_vector  3.99025737e+01 0.00000000e+00 0.00000000e+00
lattice_vector  2.44332796e-15 3.99025737e+01 0.00000000e+00
lattice_vector  2.44332796e-15 2.44332796e-15 3.99025737e+01
atom  6.91859000e-01 3.65755000e+00 1.91729000e+00	N
atom  2.70004000e-01 9.27503000e-01 2.58990000e+00	N
atom  9.74928000e-02 2.58903000e+00 3.11693000e+00	Si
atom  9.33508000e-01 3.10148000e+00 4.62376000e+00	N
atom  -2.50788000e-01 3.70387000e+00 4.42320000e-01	Si
atom  7.90507000e-01 5.72090000e+00 4.22569000e+00	N
atom  8.82940000e-01 8.07109000e+00 3.12374000e+00	N
atom  1.28938000e+00 7.36639000e+00 1.56027000e+00	Si
atom  1.48031000e+00 8.34168000e+00 1.72159000e-01	N
atom  -2.45104000e-01 6.77254000e+00 3.26894000e+00	Si
atom  -2.95207000e-01 6.63538000e+00 1.52881000e+00	N
atom  3.84107000e-01 4.57577000e+00 5.45029000e+00	Si
atom  1.05062000e+00 1.38947000e+00 6.90977000e+00	N
atom  1.48477000e+00 4.53237000e+00 6.87854000e+00	N
atom  1.67236000e+00 9.89487000e-01 8.52653000e+00	Si
atom  3.03776000e-01 5.44429000e+00 9.16062000e+00	N
atom  7.93997000e-01 1.00915000e+01 7.92084000e+00	N
atom  4.19368000e-01 7.10471000e+00 9.50319000e+00	Si
atom  1.50603000e+00 7.32914000e+00 8.16820000e+00	N
atom  3.39262000e-01 9.85800000e+00 6.13430000e+00	Si
atom  1.74580000e+00 5.52859000e+00 8.24342000e+00	Si
atom  1.12406000e+00 2.04068000e+00 1.27182000e+01	N
atom  9.07754000e-01 3.74643000e+00 1.19574000e+01	Si
atom  4.57737000e-01 8.35953000e-01 1.16620000e+01	Si
atom  6.00206000e-01 5.07925000e+00 1.30605000e+01	N
atom  -2.03185000e-01 3.34923000e+00 1.07809000e+01	N
atom  5.31029000e-01 4.63085000e+00 1.47575000e+01	Si
atom  1.15977000e+00 4.94785000e-01 1.00883000e+01	N
atom  1.02116000e+00 6.70283000e+00 1.26842000e+01	Si
atom  3.73538000e-01 8.13490000e+00 1.34489000e+01	N
atom  1.40457000e+00 9.48319000e+00 1.31558000e+01	Si
atom  1.25707000e+00 7.15462000e+00 1.09995000e+01	N
atom  7.52788000e-01 2.18865000e+00 1.79074000e+01	Si
atom  1.59434000e+00 8.50893000e-01 1.85190000e+01	N
atom  -2.29361000e-01 1.59512000e+00 1.65578000e+01	N
atom  9.58075000e-01 6.06504000e+00 1.56714000e+01	N
atom  9.79628000e-01 9.04348000e+00 1.74856000e+01	N
atom  1.18672000e+00 7.87681000e+00 1.87427000e+01	Si
atom  -6.46914000e-02 1.01469000e+01 1.53889000e+01	N
atom  -2.81105000e-01 7.61844000e+00 1.97203000e+01	N
atom  2.87680000e-01 3.34277000e+00 2.05807000e+01	Si
atom  6.61550000e-01 4.98993000e+00 2.02243000e+01	N
atom  1.56120000e+00 3.62815000e+00 2.44931000e+01	Si
atom  6.62896000e-01 7.38700000e-01 2.30856000e+01	N
atom  -4.98428000e-02 4.39031000e+00 2.40196000e+01	N
atom  1.76769000e+00 2.53568000e+00 2.07203000e+01	N
atom  1.08052000e+00 1.18681000e+00 2.47260000e+01	Si
atom  8.35973000e-01 6.96907000e+00 2.23641000e+01	N
atom  2.86334000e-01 8.46681000e+00 2.31333000e+01	Si
atom  7.29890000e-01 9.74481000e+00 2.20352000e+01	N
atom  -8.28221000e-02 6.41936000e+00 2.09489000e+01	Si
atom  1.02050000e+00 8.93953000e+00 2.46717000e+01	N
atom  1.75513000e+00 1.01487000e+01 2.05660000e+01	Si
atom  1.26129000e+00 3.47273000e+00 2.90893000e+01	Si
atom  3.95069000e-01 2.52803000e+00 2.55707000e+01	N
atom  2.69566000e-01 4.51378000e+00 2.79906000e+01	N
atom  2.55853000e-01 2.09773000e+00 2.85614000e+01	N
atom  -1.50605000e-01 2.99782000e+00 2.71407000e+01	Si
atom  -4.38008000e-01 6.06281000e+00 2.77603000e+01	Si
atom  1.61446000e-01 7.11597000e+00 2.91279000e+01	N
atom  1.73532000e+00 9.37978000e+00 2.84652000e+01	N
atom  1.37423000e-01 8.68452000e+00 2.84256000e+01	Si
atom  -1.68380000e-01 8.22059000e+00 2.56186000e+01	Si
atom  4.52233000e-01 6.84107000e+00 2.64213000e+01	N
atom  5.64194000e-01 1.82643000e+00 3.38048000e+01	Si
atom  7.96748000e-01 3.52594000e+00 3.07291000e+01	N
atom  1.39228000e+00 4.56792000e+00 3.20152000e+01	Si
atom  7.47378000e-02 5.04193000e+00 3.31797000e+01	N
atom  4.93660000e-02 4.65654000e-01 3.47332000e+01	N
atom  6.56724000e-01 9.10305000e+00 3.27232000e+01	Si
atom  7.60030000e-01 7.65892000e+00 3.37120000e+01	N
atom  6.02310000e-01 7.27385000e+00 3.07769000e+01	Si
atom  1.55168000e+00 8.73549000e+00 3.11826000e+01	N
atom  1.27837000e+00 1.01304000e+01 3.00622000e+01	Si
atom  1.72251000e+00 6.03504000e+00 3.12123000e+01	N
atom  6.31048000e-01 3.19008000e+00 3.48401000e+01	N
atom  8.06162000e-01 4.52331000e+00 3.68470000e+01	N
atom  1.58245000e+00 3.01518000e+00 3.62907000e+01	Si
atom  1.47980000e+00 1.45706000e+00 3.69094000e+01	N
atom  6.39206000e-01 4.97615000e+00 3.50141000e+01	Si
atom  1.10722000e+00 4.41689000e+00 3.95978000e+01	N
atom  3.68922000e-01 2.78021000e-01 3.63802000e+01	Si
atom  5.23803000e-01 1.00913000e+01 3.65045000e+01	Si
atom  3.54151000e-01 8.11205000e+00 3.88552000e+01	Si
atom  1.17860000e+00 5.49720000e+00 3.82025000e+01	Si
atom  9.26552000e-01 8.64586000e+00 3.73424000e+01	N
atom  -2.84111000e-01 6.43409000e+00 3.85856000e+01	N
atom  5.23030000e-01 1.38185000e+01 2.91171000e+00	N
atom  1.57891000e-01 1.11087000e+01 1.69833000e+00	N
atom  1.75538000e+00 1.42281000e+01 5.65512000e-01	N
atom  1.51515000e-01 1.45602000e+01 -1.29103000e-02	Si
atom  1.73787000e+00 1.08149000e+01 2.20321000e+00	Si
atom  -1.12056000e-01 1.05161000e+01 4.60875000e+00	N
atom  -2.42478000e-01 1.47586000e+01 4.21810000e+00	Si
atom  6.62748000e-02 1.88306000e+01 4.46823000e+00	N
atom  8.62170000e-01 1.87863000e+01 8.35356000e-01	N
atom  5.03455000e-01 1.75143000e+01 3.43317000e+00	Si
atom  7.39829000e-01 1.61125000e+01 4.35801000e+00	N
atom  1.55574000e+00 1.16893000e+01 8.27729000e+00	Si
atom  3.73493000e-01 1.43012000e+01 7.17450000e+00	Si
atom  2.13573000e-01 1.27338000e+01 7.88615000e+00	N
atom  1.87040000e+00 1.47062000e+01 6.45362000e+00	N
atom  8.71230000e-01 1.69960000e+01 8.17367000e+00	Si
atom  4.60079000e-01 1.89491000e+01 6.20786000e+00	Si
atom  -1.63232000e-01 1.79664000e+01 9.27073000e+00	N
atom  1.41301000e+00 1.75281000e+01 6.68845000e+00	N
atom  -1.28417000e-01 1.55427000e+01 8.26572000e+00	N
atom  -4.25671000e-02 2.00312000e+01 7.60712000e+00	N
atom  6.97974000e-01 1.36689000e+01 1.17041000e+01	N
atom  4.00293000e-01 1.19258000e+01 1.13189000e+01	Si
atom  3.13424000e-01 1.08823000e+01 1.27237000e+01	N
atom  7.82854000e-01 1.28820000e+01 1.44038000e+01	N
atom  1.80006000e+00 1.33802000e+01 1.30851000e+01	Si
atom  -2.27691000e-01 1.14694000e+01 1.43578000e+01	Si
atom  1.71531000e+00 1.17763000e+01 1.00302000e+01	N
atom  5.90255000e-01 1.88826000e+01 1.06028000e+01	Si
atom  -1.09459000e-01 1.84364000e+01 1.20937000e+01	N
atom  7.13339000e-01 1.92064000e+01 1.49745000e+01	N
atom  5.39893000e-01 1.25973000e+01 1.70251000e+01	N
atom  9.66035000e-01 1.37655000e+01 1.58458000e+01	Si
atom  9.44315000e-01 1.11480000e+01 1.93870000e+01	N
atom  1.67477000e+00 1.17409000e+01 1.79601000e+01	Si
atom  -4.35799000e-02 1.51698000e+01 1.59509000e+01	N
atom  1.31179000e+00 1.62297000e+01 1.64939000e+01	Si
atom  5.30119000e-01 1.73917000e+01 1.75033000e+01	N
atom  1.53395000e+00 1.75996000e+01 1.89621000e+01	Si
atom  8.11127000e-01 1.93012000e+01 1.91074000e+01	N
atom  7.49486000e-01 1.12562000e+01 2.29646000e+01	Si
atom  5.02424000e-01 1.24018000e+01 2.04906000e+01	Si
atom  1.58945000e+00 1.21991000e+01 2.17411000e+01	N
atom  6.66958000e-02 1.39513000e+01 1.99214000e+01	N
atom  5.08946000e-01 1.48640000e+01 2.47344000e+01	N
atom  1.68537000e+00 1.51842000e+01 2.18550000e+01	N
atom  1.20644000e+00 1.52806000e+01 2.02211000e+01	Si
atom  1.76732000e+00 1.53877000e+01 2.35727000e+01	Si
atom  1.17067000e+00 1.71507000e+01 2.33840000e+01	N
atom  7.31842000e-01 1.93850000e+01 2.18034000e+01	N
atom  1.13767000e+00 1.77086000e+01 2.17469000e+01	Si
atom  3.98895000e-01 1.69473000e+01 2.03431000e+01	N
atom  2.07783000e-01 1.96203000e+01 2.46575000e+01	N
atom  1.33222000e+00 1.83128000e+01 2.47498000e+01	Si
atom  4.84265000e-02 2.03242000e+01 2.31030000e+01	Si
atom  -8.61817000e-02 1.33297000e+01 2.50029000e+01	Si
atom  9.51566000e-01 1.30917000e+01 2.76102000e+01	Si
atom  1.13289000e+00 1.25645000e+01 2.59554000e+01	N
atom  7.65844000e-01 1.48884000e+01 2.74588000e+01	N
atom  -9.68820000e-02 1.31960000e+01 2.89777000e+01	N
atom  2.32087000e-01 1.49080000e+01 2.91411000e+01	Si
atom  -4.25320000e-01 1.85529000e+01 2.80636000e+01	N
atom  9.54720000e-02 1.58378000e+01 2.61496000e+01	Si
atom  -7.47641000e-02 1.75687000e+01 2.95651000e+01	Si
atom  6.43119000e-01 1.98947000e+01 2.81162000e+01	Si
atom  1.21288000e+00 1.72090000e+01 2.60522000e+01	N
atom  1.62240000e+00 1.74405000e+01 2.90800000e+01	N
atom  3.73418000e-01 1.22571000e+01 3.37661000e+01	N
atom  1.09929000e+00 1.18217000e+01 3.09567000e+01	N
atom  1.43485000e+00 1.47941000e+01 3.31842000e+01	N
atom  1.56259000e+00 1.16509000e+01 3.26310000e+01	Si
atom  8.03138000e-01 1.37310000e+01 3.44652000e+01	Si
atom  1.49820000e+00 1.50213000e+01 3.03469000e+01	N
atom  5.07307000e-01 1.54003000e+01 3.18597000e+01	Si
atom  3.51233000e-01 1.70949000e+01 3.13078000e+01	N
atom  3.62604000e-01 1.43211000e+01 3.81687000e+01	N
atom  9.11769000e-01 1.29250000e+01 3.73107000e+01	Si
atom  -1.93551000e-01 1.16736000e+01 3.71548000e+01	N
atom  1.81844000e+00 1.37987000e+01 3.59206000e+01	N
atom  -2.87533000e-01 1.62339000e+01 3.97316000e+01	N
atom  1.88029000e-01 1.74746000e+01 3.50152000e+01	N
atom  1.61138000e+00 1.75503000e+01 3.60169000e+01	Si
atom  1.85733000e+00 1.92768000e+01 3.60455000e+01	N
atom  1.34932000e+00 1.69952000e+01 3.76511000e+01	N
atom  -6.73144000e-02 1.60196000e+01 3.79252000e+01	Si
atom  1.21090000e+00 2.35055000e+01 2.35841000e+00	N
atom  1.45731000e+00 2.22555000e+01 3.54905000e+00	Si
atom  5.06777000e-02 2.17163000e+01 3.18618000e-01	N
atom  -3.35825000e-02 2.18520000e+01 4.35815000e+00	N
atom  -3.13213000e-02 2.47198000e+01 5.17111000e-01	N
atom  -1.52144000e-01 2.32112000e+01 1.28451000e+00	Si
atom  1.72193000e+00 2.08724000e+01 2.45317000e+00	N
atom  1.74475000e+00 2.40112000e+01 4.92792000e+00	N
atom  5.14422000e-01 2.04010000e+01 1.37907000e+00	Si
atom  9.67538000e-01 2.62864000e+01 2.48676000e+00	N
atom  9.55953000e-01 2.77142000e+01 3.53156000e+00	Si
atom  -3.90546000e-02 2.92792000e+01 1.42299000e+00	Si
atom  -2.32042000e-01 2.88412000e+01 3.14426000e+00	N
atom  -2.41605000e-01 2.62822000e+01 1.23884000e+00	Si
atom  1.53573000e+00 3.00732000e+01 1.13527000e+00	N
atom  -2.99971000e-01 2.79162000e+01 4.58274000e-01	N
atom  8.77703000e-01 2.31908000e+01 9.56395000e+00	N
atom  1.38330000e-01 2.26039000e+01 6.92401000e+00	N
atom  1.19607000e+00 2.12179000e+01 7.21092000e+00	Si
atom  7.85057000e-02 2.38206000e+01 8.15428000e+00	Si
atom  6.82960000e-01 2.50972000e+01 7.14605000e+00	N
atom  6.40027000e-01 2.51932000e+01 5.39699000e+00	Si
atom  2.58765000e-01 2.95362000e+01 5.62494000e+00	N
atom  5.51001000e-01 2.79825000e+01 6.36724000e+00	Si
atom  7.34429000e-01 2.69102000e+01 5.04108000e+00	N
atom  6.36727000e-01 2.80616000e+01 9.81932000e+00	N
atom  7.12777000e-01 2.31572000e+01 1.34179000e+01	Si
atom  1.46245000e-01 2.38575000e+01 1.10035000e+01	Si
atom  3.37645000e-01 2.15440000e+01 1.30354000e+01	N
atom  1.58443000e+00 2.37828000e+01 1.20483000e+01	N
atom  -6.71245000e-02 2.06333000e+01 1.44266000e+01	Si
atom  3.47648000e-01 2.05872000e+01 1.04139000e+01	N
atom  -1.87322000e-01 2.46524000e+01 1.36519000e+01	N
atom  1.70118000e+00 2.16405000e+01 9.93378000e+00	Si
atom  1.76372000e+00 2.31875000e+01 1.47944000e+01	N
atom  1.72477000e+00 2.94540000e+01 9.88250000e+00	Si
atom  -1.71352000e-01 2.55441000e+01 1.06461000e+01	N
atom  1.13965000e+00 2.58473000e+01 1.32502000e+01	Si
atom  1.43326000e-01 2.72769000e+01 1.34941000e+01	N
atom  1.23304000e+00 2.65054000e+01 1.03446000e+01	Si
atom  7.90076000e-01 2.86262000e+01 1.44138000e+01	Si
atom  1.17848000e+00 2.99329000e+01 1.33428000e+01	N
atom  1.38588000e+00 2.28552000e+01 1.76137000e+01	N
atom  6.26138000e-01 2.31297000e+01 1.61353000e+01	Si
atom  8.84030000e-02 2.26962000e+01 1.88764000e+01	Si
atom  -2.18969000e-01 2.46104000e+01 1.63570000e+01	N
atom  -2.95625000e-01 2.44064000e+01 1.91223000e+01	N
atom  -4.15668000e-01 2.18609000e+01 1.56018000e+01	N
atom  1.96409000e+00 2.54377000e+01 1.80276000e+01	N
atom  1.81584000e-01 2.54797000e+01 1.77676000e+01	Si
atom  5.10818000e-01 2.94689000e+01 1.74184000e+01	N
atom  -2.12147000e-02 2.82614000e+01 1.84255000e+01	Si
atom  1.07956000e+00 2.75883000e+01 1.95130000e+01	N
atom  1.07340000e+00 2.28888000e+01 2.17393000e+01	Si
atom  1.11796000e+00 2.16997000e+01 2.30306000e+01	N
atom  7.33179000e-01 2.19291000e+01 2.03040000e+01	N
atom  1.26182000e+00 2.02953000e+01 2.04142000e+01	Si
atom  -1.86206000e-01 2.85105000e+01 2.37750000e+01	Si
atom  5.66113000e-01 2.64397000e+01 2.17567000e+01	Si
atom  5.78436000e-01 2.90488000e+01 2.06620000e+01	Si
atom  5.29552000e-01 2.81628000e+01 2.21944000e+01	N
atom  4.18007000e-01 2.58908000e+01 2.33930000e+01	N
atom  1.65713000e+00 2.64436000e+01 2.45673000e+01	Si
atom  1.84115000e+00 2.56375000e+01 2.09697000e+01	N
atom  -7.63223000e-02 3.02666000e+01 2.39444000e+01	N
atom  1.15902000e-01 2.38864000e+01 2.50174000e+01	N
atom  1.21422000e+00 2.34662000e+01 2.75984000e+01	N
atom  1.60356000e+00 2.41014000e+01 2.59782000e+01	Si
atom  -1.36336000e-01 2.11295000e+01 2.71605000e+01	N
atom  -2.88111000e-01 2.27442000e+01 2.78184000e+01	Si
atom  9.25577000e-01 2.04321000e+01 2.97099000e+01	N
atom  1.01347000e+00 2.79541000e+01 2.49814000e+01	N
atom  1.18582000e+00 2.62567000e+01 2.87593000e+01	N
atom  -4.28364000e-01 2.66379000e+01 2.83109000e+01	Si
atom  1.19232000e+00 2.18600000e+01 3.29592000e+01	Si
atom  1.38020000e+00 2.35887000e+01 3.32924000e+01	N
atom  1.58076000e-01 2.47274000e+01 3.09539000e+01	N
atom  -3.04785000e-01 2.13493000e+01 3.22750000e+01	N
atom  1.43478000e+00 2.15135000e+01 3.47237000e+01	N
atom  6.90524000e-01 2.50499000e+01 3.25576000e+01	Si
atom  1.61732000e+00 2.56000000e+01 3.03303000e+01	Si
atom  1.29984000e+00 2.91022000e+01 3.39555000e+01	N
atom  -5.43583000e-02 2.83887000e+01 3.47677000e+01	Si
atom  1.90693000e+00 2.61540000e+01 3.19363000e+01	N
atom  1.43785000e+00 2.32902000e+01 3.50080000e+01	Si
atom  9.04937000e-01 2.15970000e+01 3.87029000e+01	Si
atom  3.88497000e-01 2.43959000e+01 3.87816000e+01	Si
atom  5.44786000e-03 2.15026000e+01 3.72328000e+01	N
atom  1.61096000e+00 2.31184000e+01 3.86821000e+01	N
atom  4.60146000e-01 2.04478000e+01 3.58745000e+01	Si
atom  -1.89726000e-01 2.38053000e+01 3.55266000e+01	N
atom  2.77137000e-01 2.69781000e+01 3.73926000e+01	Si
atom  1.14214000e+00 2.55954000e+01 3.78499000e+01	N
atom  6.42575000e-02 2.98076000e+01 3.76819000e+01	Si
atom  1.04144000e+00 2.84264000e+01 3.78673000e+01	N
atom  2.13753000e-02 2.69546000e+01 3.56974000e+01	N
atom  -1.91921000e-01 2.97867000e+01 3.59913000e+01	N
atom  9.18852000e-01 3.28396000e+01 3.58959000e+00	Si
atom  1.62781000e+00 3.12829000e+01 3.88988000e+00	N
atom  -1.61447000e-01 3.42585000e+01 1.19906000e+00	Si
atom  -2.93730000e-01 3.28787000e+01 2.24273000e+00	N
atom  5.55157000e-01 3.55925000e+01 2.05835000e+00	N
atom  1.74767000e+00 4.00961000e+01 3.12028000e+00	Si
atom  1.57362000e+00 3.87767000e+01 2.21266000e-01	Si
atom  6.77506000e-01 3.63962000e+01 4.64453000e+00	N
atom  -8.32678000e-02 3.93384000e+01 3.86469000e-02	N
atom  1.55636000e+00 3.93407000e+01 4.66390000e+00	N
atom  -2.78647000e-01 3.65527000e+01 3.17840000e+00	Si
atom  -1.84171000e-02 3.33477000e+01 4.89687000e+00	N
atom  1.09486000e+00 3.18053000e+01 6.88220000e+00	N
atom  1.51202000e+00 3.07415000e+01 5.51894000e+00	Si
atom  5.62277000e-01 3.48770000e+01 5.58646000e+00	Si
atom  9.49026000e-01 3.44246000e+01 9.28020000e+00	N
atom  1.93173000e+00 3.46298000e+01 6.62430000e+00	N
atom  1.48282000e+00 3.75775000e+01 9.33432000e+00	N
atom  4.72840000e-01 4.00564000e+01 5.89838000e+00	Si
atom  3.14953000e-01 3.88678000e+01 7.24122000e+00	N
atom  3.82585000e-01 3.25109000e+01 1.26416000e+01	N
atom  1.33539000e+00 3.11653000e+01 1.21923000e+01	Si
atom  1.04953000e+00 3.38718000e+01 1.34670000e+01	Si
atom  7.07756000e-01 3.06499000e+01 1.06618000e+01	N
atom  1.33626000e+00 3.91904000e+01 1.22466000e+01	N
atom  3.23590000e-01 3.82048000e+01 1.33695000e+01	Si
atom  1.30230000e+00 3.61200000e+01 1.16268000e+01	N
atom  1.82633000e+00 3.78435000e+01 1.42848000e+01	N
atom  1.07760000e+00 3.60286000e+01 9.86607000e+00	Si
atom  -2.77213000e-01 3.95314000e+01 1.44180000e+01	N
atom  9.88557000e-01 3.22429000e+01 1.63494000e+01	Si
atom  7.35150000e-01 3.30897000e+01 1.78484000e+01	N
atom  1.58239000e+00 3.34139000e+01 1.50909000e+01	N
atom  -2.88310000e-01 3.98346000e+01 1.61621000e+01	Si
atom  9.00810000e-01 3.86096000e+01 1.67791000e+01	N
atom  -2.71743000e-01 3.65828000e+01 1.56096000e+01	N
atom  9.85255000e-02 3.65145000e+01 1.85314000e+01	N
atom  1.30600000e+00 3.72210000e+01 1.57294000e+01	Si
atom  1.78662000e+00 3.64468000e+01 1.85731000e+01	Si
atom  4.34284000e-01 3.29413000e+01 2.03512000e+01	N
atom  2.21931000e-01 3.13949000e+01 2.26310000e+01	Si
atom  5.40585000e-01 3.40198000e+01 2.16818000e+01	Si
atom  -2.59177000e-01 3.04935000e+01 2.12980000e+01	N
atom  1.51121000e+00 3.15764000e+01 2.04134000e+01	Si
atom  -3.56220000e-01 3.30073000e+01 2.28162000e+01	N
atom  1.86696000e-02 3.65347000e+01 2.26591000e+01	Si
atom  7.79314000e-01 3.57784000e+01 2.40114000e+01	N
atom  5.54031000e-01 3.80907000e+01 2.19563000e+01	N
atom  1.70618000e+00 3.93409000e+01 2.24164000e+01	Si
atom  -1.67932000e-01 3.55601000e+01 2.12830000e+01	N
atom  1.23416000e+00 3.10437000e+01 2.79174000e+01	Si
atom  9.98319000e-01 3.27715000e+01 2.78055000e+01	N
atom  -6.62271000e-02 3.05701000e+01 2.89358000e+01	N
atom  1.24499000e+00 3.05470000e+01 2.62641000e+01	N
atom  -3.24890000e-01 3.05890000e+01 2.56523000e+01	Si
atom  -2.15935000e-01 3.72184000e+01 2.80555000e+01	N
atom  1.49324000e+00 3.70741000e+01 2.83907000e+01	Si
atom  3.79017000e-02 3.84194000e+01 2.67047000e+01	Si
atom  9.24006000e-01 3.97038000e+01 2.57098000e+01	N
atom  1.99694000e-01 4.03063000e+01 2.88124000e+01	Si
atom  6.61781000e-01 3.33430000e+01 3.23790000e+01	Si
atom  2.11997000e-01 3.07103000e+01 3.06838000e+01	Si
atom  9.11841000e-01 3.49084000e+01 3.16077000e+01	N
atom  -8.00881000e-02 3.24654000e+01 3.09895000e+01	N
atom  1.73630000e+00 3.02656000e+01 3.12972000e+01	N
atom  3.05484000e-02 3.58857000e+01 3.05783000e+01	Si
atom  6.95290000e-01 3.84569000e+01 3.27982000e+01	N
atom  1.74857000e-01 3.81418000e+01 3.11667000e+01	Si
atom  1.18975000e+00 3.71487000e+01 3.01852000e+01	N
atom  -2.92950000e-01 3.95967000e+01 3.03922000e+01	N
atom  1.26305000e+00 3.20158000e+01 3.49499000e+01	N
atom  -9.15916000e-03 3.27121000e+01 3.85809000e+01	Si
atom  7.67024000e-01 3.12347000e+01 3.84840000e+01	N
atom  -8.38919000e-02 3.31799000e+01 3.68908000e+01	N
atom  -2.53010000e-01 3.27340000e+01 3.51897000e+01	Si
atom  7.51605000e-01 3.38673000e+01 3.96773000e+01	N
atom  1.33613000e+00 3.03012000e+01 3.51863000e+01	Si
atom  1.09986000e+00 3.86097000e+01 3.65513000e+01	N
atom  1.71421000e+00 3.72216000e+01 3.93491000e+01	N
atom  4.07458000e-01 3.60159000e+01 3.69772000e+01	N
atom  -3.55476000e-01 3.76060000e+01 3.66103000e+01	Si
atom  2.92243000e+00 1.44232000e+00 3.36558000e+00	N
atom  3.35416000e+00 4.31887000e+00 3.73378000e+00	N
atom  2.61817000e+00 2.82574000e+00 4.38647000e+00	Si
atom  3.63397000e+00 3.69249000e+00 1.20335000e+00	N
atom  2.07304000e+00 4.40441000e+00 1.20967000e+00	Si
atom  2.82501000e+00 9.83820000e+00 3.19101000e+00	N
atom  3.14807000e+00 7.29195000e+00 4.09068000e+00	N
atom  2.40275000e+00 5.83696000e+00 3.59160000e+00	Si
atom  2.20880000e+00 5.97813000e+00 1.86254000e+00	N
atom  2.08386000e+00 8.71959000e+00 4.26069000e+00	Si
atom  3.01903000e+00 9.10998000e+00 -6.23528000e-02	Si
atom  4.17448000e+00 8.43825000e+00 9.87585000e-01	N
atom  4.31551000e+00 9.40933000e+00 2.38193000e+00	Si
atom  2.42111000e+00 2.53534000e+00 8.71723000e+00	N
atom  3.31901000e+00 2.62312000e+00 5.96686000e+00	N
atom  3.32314000e+00 5.22112000e+00 8.97426000e+00	N
atom  1.94425000e+00 2.91212000e+00 7.03774000e+00	Si
atom  3.31643000e+00 3.68766000e+00 9.75445000e+00	Si
atom  3.55912000e+00 9.45780000e+00 7.96245000e+00	N
atom  2.04061000e+00 9.29453000e+00 5.87526000e+00	N
atom  1.97685000e+00 8.81954000e+00 7.62791000e+00	Si
atom  2.56820000e+00 3.90303000e+00 1.13538000e+01	N
atom  2.31974000e+00 2.15539000e+00 1.39066000e+01	Si
atom  3.94686000e+00 2.25126000e+00 1.31693000e+01	N
atom  4.11619000e+00 3.61427000e+00 1.21270000e+01	Si
atom  2.64954000e+00 6.72871000e-01 1.47253000e+01	N
atom  2.76012000e+00 6.82388000e+00 1.29517000e+01	N
atom  2.91661000e+00 7.67661000e+00 1.13996000e+01	Si
atom  2.57871000e+00 9.29052000e+00 1.18824000e+01	N
atom  4.01372000e+00 6.21349000e+00 1.40003000e+01	Si
atom  2.55372000e+00 9.70119000e+00 1.44777000e+01	N
atom  4.21647000e+00 7.49526000e+00 1.02490000e+01	N
atom  3.88040000e+00 2.30036000e+00 1.66007000e+01	N
atom  2.97603000e+00 3.71675000e+00 1.62966000e+01	Si
atom  3.90812000e+00 7.47258000e-01 1.59587000e+01	Si
atom  1.97475000e+00 4.82428000e+00 1.90269000e+01	Si
atom  1.85201000e+00 3.47475000e+00 1.49205000e+01	N
atom  1.88078000e+00 3.65670000e+00 1.76842000e+01	N
atom  1.94023000e+00 6.39542000e+00 1.81492000e+01	N
atom  3.96081000e+00 9.12910000e+00 1.97446000e+01	Si
atom  3.23089000e+00 8.05389000e+00 1.63767000e+01	N
atom  3.59799000e+00 5.32393000e+00 1.57064000e+01	N
atom  2.33538000e+00 6.49302000e+00 1.65148000e+01	Si
atom  2.10035000e+00 9.47653000e+00 1.62048000e+01	Si
atom  2.89363000e+00 3.67984000e+00 2.14985000e+01	Si
atom  2.57382000e+00 2.15584000e+00 2.44363000e+01	N
atom  3.29804000e+00 4.65095000e+00 2.01335000e+01	N
atom  2.26845000e+00 4.38379000e+00 2.29639000e+01	N
atom  2.65917000e+00 1.35959000e+00 1.98524000e+01	Si
atom  4.23988000e+00 2.19884000e+00 2.37535000e+01	Si
atom  4.06235000e+00 2.51533000e+00 2.21406000e+01	N
atom  3.63601000e+00 6.55614000e+00 2.24594000e+01	N
atom  3.82433000e+00 9.09497000e+00 2.38230000e+01	N
atom  2.08311000e+00 6.07617000e+00 2.31126000e+01	Si
atom  2.62587000e+00 6.81081000e+00 2.46584000e+01	N
atom  4.19623000e+00 7.32234000e+00 2.40325000e+01	Si
atom  2.53329000e+00 9.74584000e+00 2.47854000e+01	Si
atom  2.30038000e+00 8.62770000e+00 1.97704000e+01	N
atom  3.32420000e+00 4.37444000e+00 2.70613000e+01	Si
atom  2.80791000e+00 3.46775000e+00 2.84454000e+01	N
atom  2.10210000e+00 4.53828000e+00 2.58348000e+01	N
atom  4.00223000e+00 3.32950000e+00 2.96742000e+01	Si
atom  3.18806000e+00 6.09662000e+00 2.75834000e+01	N
atom  4.14104000e+00 6.42275000e+00 2.89533000e+01	Si
atom  2.04038000e+00 6.26859000e+00 2.61577000e+01	Si
atom  3.34343000e+00 2.12646000e+00 3.07117000e+01	N
atom  3.29673000e+00 2.18475000e+00 3.24443000e+01	Si
atom  2.65941000e+00 3.80128000e+00 3.29476000e+01	N
atom  3.27680000e+00 4.37035000e+00 3.44366000e+01	Si
atom  2.02665000e+00 1.17496000e+00 3.30671000e+01	N
atom  4.14805000e+00 5.12361000e+00 3.01735000e+01	N
atom  2.97557000e+00 4.92920000e-01 3.01278000e+01	Si
atom  3.78798000e+00 7.59662000e+00 3.01759000e+01	N
atom  3.44911000e+00 6.34206000e+00 3.12925000e+01	Si
atom  3.57614000e+00 6.95140000e+00 3.30289000e+01	N
atom  3.31216000e+00 9.04244000e+00 3.09925000e+01	Si
atom  2.38098000e+00 7.22463000e+00 3.42434000e+01	Si
atom  1.92441000e+00 1.00878000e+01 3.33751000e+01	N
atom  3.15100000e+00 3.28607000e+00 3.57903000e+01	N
atom  3.66687000e+00 2.32911000e+00 3.84524000e+01	N
atom  2.81497000e+00 8.49845000e-01 3.78258000e+01	Si
atom  2.82697000e+00 8.41241000e+00 3.54195000e+01	N
atom  2.95529000e+00 8.03677000e+00 3.71510000e+01	Si
atom  2.78729000e+00 1.00178000e+01 3.48443000e+01	Si
atom  2.19661000e+00 5.67287000e+00 3.48173000e+01	N
atom  3.34852000e+00 9.45995000e+00 3.82367000e+01	N
atom  4.26063000e+00 6.00192000e+00 3.80591000e+01	Si
atom  2.59254000e+00 6.40299000e+00 3.79583000e+01	N
atom  2.69324000e+00 1.22963000e+01 2.53231000e+00	N
atom  3.85251000e+00 1.18409000e+01 1.38377000e+00	Si
atom  3.41262000e+00 1.50352000e+01 2.67651000e+00	N
atom  2.74987000e+00 1.05971000e+01 7.63799000e-01	N
atom  2.17446000e+00 1.39161000e+01 2.20324000e+00	Si
atom  4.14253000e+00 1.31514000e+01 3.41707000e-01	N
atom  2.50199000e+00 1.83961000e+01 1.32413000e+00	Si
atom  3.62054000e+00 1.78601000e+01 3.84986000e+00	Si
atom  3.07943000e+00 1.70573000e+01 2.93416000e-01	N
atom  3.68905000e+00 1.96880000e+01 1.26314000e+00	N
atom  3.82215000e+00 1.96046000e+01 3.99163000e+00	N
atom  4.07235000e+00 1.61032000e+01 1.39715000e+00	Si
atom  2.06808000e+00 1.79137000e+01 2.91229000e+00	N
atom  3.45455000e+00 1.64470000e+01 4.91403000e+00	N
atom  2.80891000e+00 1.19739000e+01 7.12734000e+00	N
atom  3.24781000e+00 1.35896000e+01 6.68856000e+00	Si
atom  3.32448000e+00 1.04436000e+01 6.47936000e+00	Si
atom  4.00579000e+00 1.42621000e+01 8.14579000e+00	N
atom  1.85438000e+00 1.62006000e+01 5.57444000e+00	Si
atom  2.23653000e+00 1.65181000e+01 9.07184000e+00	N
atom  3.42661000e+00 1.53183000e+01 9.43714000e+00	Si
atom  3.91377000e+00 1.89709000e+01 8.33516000e+00	N
atom  3.25115000e+00 1.79259000e+01 9.49755000e+00	Si
atom  2.79881000e+00 1.46874000e+01 1.35171000e+01	N
atom  2.76140000e+00 1.21917000e+01 1.23279000e+01	N
atom  3.15172000e+00 1.26631000e+01 1.06710000e+01	Si
atom  3.60576000e+00 1.07107000e+01 1.20137000e+01	Si
atom  3.54632000e+00 1.43255000e+01 1.08011000e+01	N
atom  4.25747000e+00 1.46750000e+01 1.23478000e+01	Si
atom  3.17401000e+00 1.92209000e+01 1.35197000e+01	N
atom  2.32170000e+00 1.88024000e+01 1.07091000e+01	N
atom  3.27686000e+00 1.97455000e+01 1.17824000e+01	Si
atom  2.32453000e+00 1.86909000e+01 1.49599000e+01	Si
atom  2.74761000e+00 1.29982000e+01 1.85389000e+01	N
atom  3.17719000e+00 1.46217000e+01 1.79778000e+01	Si
atom  2.82203000e+00 1.08566000e+01 1.69071000e+01	N
atom  2.42140000e+00 1.47680000e+01 1.64003000e+01	N
atom  4.10833000e+00 1.21511000e+01 1.92889000e+01	Si
atom  3.54344000e+00 1.93389000e+01 1.59345000e+01	N
atom  2.14043000e+00 1.57414000e+01 1.88657000e+01	N
atom  3.14776000e+00 1.82514000e+01 1.86268000e+01	N
atom  3.24996000e+00 1.55962000e+01 1.49379000e+01	Si
atom  2.34800000e+00 1.69588000e+01 1.52728000e+01	N
atom  4.05098000e+00 1.92487000e+01 1.75985000e+01	Si
atom  2.97161000e+00 1.22878000e+01 2.27515000e+01	Si
atom  2.82888000e+00 1.36675000e+01 2.38785000e+01	N
atom  2.26824000e+00 1.12435000e+01 2.39603000e+01	N
atom  3.42804000e+00 1.07832000e+01 2.00708000e+01	N
atom  2.84703000e+00 1.79075000e+01 2.13660000e+01	N
atom  3.47166000e+00 1.61057000e+01 2.38497000e+01	N
atom  2.92245000e+00 1.89175000e+01 2.41749000e+01	N
atom  3.49031000e+00 1.76947000e+01 2.30622000e+01	Si
atom  3.77601000e+00 1.88059000e+01 2.01468000e+01	Si
atom  4.05340000e+00 2.01411000e+01 2.47011000e+01	Si
atom  3.03628000e+00 1.06014000e+01 2.81685000e+01	Si
atom  2.66719000e+00 1.24408000e+01 2.52340000e+01	Si
atom  2.22446000e+00 1.21699000e+01 2.83610000e+01	N
atom  3.13684000e+00 1.05125000e+01 2.63068000e+01	N
atom  4.20106000e+00 1.27999000e+01 2.59265000e+01	N
atom  4.07667000e+00 1.65132000e+01 2.97703000e+01	N
atom  2.12414000e+00 1.77123000e+01 2.74166000e+01	Si
atom  3.75216000e+00 1.72078000e+01 2.70869000e+01	N
atom  2.15099000e+00 1.94772000e+01 2.74164000e+01	N
atom  3.19309000e+00 1.22696000e+01 3.26360000e+01	N
atom  3.86875000e+00 1.33266000e+01 3.04537000e+01	N
atom  2.62334000e+00 1.23031000e+01 3.01272000e+01	Si
atom  3.09311000e+00 1.05295000e+01 3.01019000e+01	N
atom  4.21414000e+00 1.48366000e+01 3.34466000e+01	N
atom  2.81539000e+00 1.57640000e+01 3.36078000e+01	Si
atom  2.91664000e+00 1.65966000e+01 3.20180000e+01	N
atom  3.77865000e+00 1.95801000e+01 3.05807000e+01	N
atom  3.18510000e+00 1.94070000e+01 3.35177000e+01	N
atom  2.27342000e+00 1.65815000e+01 3.03898000e+01	Si
atom  2.74320000e+00 2.03262000e+01 3.48734000e+01	Si
atom  3.09600000e+00 1.50075000e+01 3.64075000e+01	Si
atom  2.96512000e+00 1.10340000e+01 3.76550000e+01	Si
atom  2.86248000e+00 1.37473000e+01 3.92358000e+01	Si
atom  2.19960000e+00 1.24250000e+01 3.83864000e+01	N
atom  2.05418000e+00 1.08411000e+01 3.61659000e+01	N
atom  3.19251000e+00 1.51148000e+01 3.81673000e+01	N
atom  2.81437000e+00 1.67436000e+01 3.85711000e+01	Si
atom  3.73416000e+00 1.80598000e+01 3.78178000e+01	N
atom  2.67263000e+00 1.62861000e+01 3.53340000e+01	N
atom  3.19474000e+00 1.96301000e+01 3.73726000e+01	Si
atom  3.08269000e+00 2.19993000e+01 4.22920000e+00	N
atom  3.51438000e+00 2.08299000e+01 2.67321000e+00	Si
atom  2.84559000e+00 2.49872000e+01 5.14067000e-01	N
atom  3.59523000e+00 2.47297000e+01 3.07294000e+00	N
atom  3.43208000e+00 2.37061000e+01 4.44807000e+00	Si
atom  2.05374000e+00 2.49249000e+01 2.06410000e+00	Si
atom  3.87689000e+00 2.24074000e+01 7.72746000e-02	N
atom  2.49350000e+00 2.85475000e+01 3.22976000e+00	N
atom  4.13274000e+00 2.83657000e+01 2.76163000e+00	Si
atom  2.31735000e+00 3.01874000e+01 2.68075000e+00	Si
atom  4.06234000e+00 3.02308000e+01 2.44576000e+00	N
atom  2.47647000e+00 2.12329000e+01 8.45136000e+00	N
atom  3.34851000e+00 2.06502000e+01 5.32427000e+00	Si
atom  4.11677000e+00 2.06414000e+01 8.14794000e+00	Si
atom  1.86381000e+00 2.02070000e+01 5.94442000e+00	N
atom  2.03203000e+00 2.61947000e+01 7.53323000e+00	Si
atom  2.83759000e+00 3.01403000e+01 8.74632000e+00	N
atom  3.07569000e+00 2.99693000e+01 5.96960000e+00	N
atom  2.43446000e+00 2.59315000e+01 9.25349000e+00	N
atom  3.30982000e+00 2.59108000e+01 6.55333000e+00	N
atom  3.29757000e+00 2.90185000e+01 7.40889000e+00	Si
atom  1.90901000e+00 2.79389000e+01 7.42858000e+00	N
atom  2.83698000e+00 2.14089000e+01 1.12571000e+01	N
atom  3.20285000e+00 2.30435000e+01 1.19172000e+01	Si
atom  3.98145000e+00 2.32994000e+01 1.34789000e+01	N
atom  4.08499000e+00 2.39753000e+01 1.07429000e+01	N
atom  3.39826000e+00 2.75165000e+01 1.17865000e+01	Si
atom  3.02432000e+00 2.90267000e+01 1.10569000e+01	N
atom  2.52765000e+00 2.57176000e+01 1.43953000e+01	N
atom  3.91062000e+00 2.77928000e+01 1.34692000e+01	N
atom  2.03050000e+00 2.65275000e+01 1.18560000e+01	N
atom  3.98712000e+00 2.54240000e+01 9.73725000e+00	Si
atom  3.16519000e+00 2.41340000e+01 1.48004000e+01	Si
atom  2.76270000e+00 2.39423000e+01 1.77209000e+01	Si