lattice_vector  3.99247703e+01 0.00000000e+00 0.00000000e+00
lattice_vector  2.44468711e-15 3.99247703e+01 0.00000000e+00
lattice_vector  2.44468711e-15 2.44468711e-15 3.99247703e+01
atom  3.10727000e+00 9.25597000e-01 3.46749000e+00	N
atom  7.36641000e-01 2.19477000e+00 8.55166000e-01	N
atom  2.64251000e+00 2.43316000e+00 4.31358000e+00	Si
atom  1.50586000e+00 6.92863000e-01 2.39458000e-01	Si
atom  4.32414000e+00 1.99102000e+00 1.63063000e-01	Si
atom  4.80529000e+00 9.55422000e-01 3.07923000e+00	Si
atom  5.11449000e+00 1.78519000e+00 1.63820000e+00	N
atom  5.68780000e+00 1.61244000e+00 4.38695000e+00	N
atom  7.92536000e+00 1.98494000e+00 1.90888000e+00	N
atom  8.54233000e+00 7.67849000e-01 7.59089000e-01	Si
atom  9.12579000e+00 2.57138000e+00 3.26819000e+00	Si
atom  9.47819000e-01 2.12107000e+00 4.65682000e+00	N
atom  7.70943000e-01 1.23447000e+00 7.02199000e+00	N
atom  2.31463000e-01 6.31704000e-01 5.41186000e+00	Si
atom  1.09066000e+00 6.58685000e-01 9.63897000e+00	N
atom  3.85480000e+00 4.67129000e-01 9.30904000e+00	N
atom  1.69144000e+00 2.64640000e+00 6.93906000e+00	Si
atom  3.17715000e+00 2.62862000e+00 5.97356000e+00	N
atom  8.39730000e+00 2.31849000e+00 6.36652000e+00	Si
atom  7.32528000e+00 1.01079000e+00 6.49763000e+00	N
atom  9.16888000e+00 5.40086000e-01 8.80331000e+00	N
atom  6.51724000e+00 9.82650000e-01 9.23498000e+00	N
atom  5.99050000e-01 2.25310000e+00 1.44346000e+01	Si
atom  3.61135000e+00 2.17744000e+00 1.38179000e+01	N
atom  6.74036000e-01 6.08617000e-01 1.40683000e+01	N
atom  1.17684000e+00 2.33507000e+00 9.97704000e+00	Si
atom  4.39105000e+00 8.72789000e-01 1.30355000e+01	Si
atom  2.62314000e+00 2.69932000e+00 1.08962000e+01	N
atom  5.45661000e+00 1.34399000e+00 1.16714000e+01	N
atom  8.54385000e+00 2.01384000e+00 1.18593000e+01	N
atom  8.58067000e+00 2.21361000e+00 1.35734000e+01	Si
atom  6.84805000e+00 2.43478000e+00 1.17357000e+01	Si
atom  8.00611000e+00 8.02268000e-01 1.44503000e+01	N
atom  5.22046000e+00 2.97635000e-01 1.02144000e+01	Si
atom  1.67484000e+00 2.32929000e+00 1.57713000e+01	N
atom  4.02827000e+00 1.60718000e+00 1.66928000e+01	N
atom  2.13770000e+00 2.07494000e+00 1.85106000e+01	N
atom  2.78097000e+00 7.44815000e-01 1.74733000e+01	Si
atom  1.39815000e+00 1.11126000e+00 1.97827000e+01	Si
atom  6.40009000e+00 1.62199000e+00 1.47465000e+01	Si
atom  7.35350000e+00 1.92145000e+00 1.87630000e+01	N
atom  4.82783000e+00 2.25080000e+00 1.90818000e+01	N
atom  5.50421000e+00 1.57494000e+00 1.75672000e+01	Si
atom  6.49930000e+00 2.43066000e+00 1.62619000e+01	N
atom  5.69591000e-01 9.56061000e-01 2.30206000e+01	N
atom  3.80733000e+00 1.49758000e+00 2.43438000e+01	Si
atom  1.35997000e+00 1.46320000e+00 2.44939000e+01	Si
atom  4.07238000e+00 1.60850000e+00 2.26438000e+01	N
atom  -9.51818000e-02 1.75396000e+00 2.01946000e+01	N
atom  7.98778000e+00 2.03786000e+00 2.24028000e+01	Si
atom  6.65559000e+00 1.51079000e+00 2.13531000e+01	N
atom  8.99865000e+00 5.34019000e-01 2.23602000e+01	N
atom  5.33789000e+00 5.24827000e-01 2.21354000e+01	Si
atom  6.28513000e+00 2.43373000e+00 1.99894000e+01	Si
atom  3.78799000e-01 1.74193000e+00 2.59198000e+01	N
atom  1.08633000e+00 8.02330000e-01 2.89149000e+01	N
atom  3.67943000e-01 7.37433000e-01 2.72745000e+01	Si
atom  3.73475000e+00 1.68682000e+00 2.94598000e+01	N
atom  2.00156000e+00 2.18500000e+00 2.96247000e+01	Si
atom  2.68830000e+00 2.87986000e-01 2.49606000e+01	N
atom  7.59638000e+00 2.47092000e-01 2.58086000e+01	N
atom  6.43244000e+00 2.37295000e+00 2.84033000e+01	Si
atom  6.53629000e+00 1.40383000e+00 2.49000000e+01	Si
atom  5.86423000e+00 8.48462000e-01 2.78162000e+01	N
atom  9.36425000e+00 1.04911000e+00 2.76985000e+01	N
atom  5.02520000e+00 2.05920000e+00 2.53916000e+01	N
atom  2.72203000e+00 1.96639000e+00 3.42042000e+01	N
atom  1.44684000e+00 1.67920000e+00 3.30415000e+01	Si
atom  4.11706000e+00 1.36271000e+00 3.33584000e+01	Si
atom  1.85601000e+00 2.44988000e+00 3.13619000e+01	N
atom  4.67017000e+00 2.44515000e+00 3.08080000e+01	Si
atom  8.73401000e+00 7.78992000e-01 3.04296000e+01	N
atom  7.34515000e+00 1.42486000e+00 3.11591000e+01	Si
atom  6.22395000e+00 2.19134000e+00 3.00927000e+01	N
atom  5.17414000e+00 4.05897000e-01 3.43897000e+01	N
atom  2.56732000e-01 1.96428000e+00 3.76991000e+01	Si
atom  1.81724000e+00 1.97725000e+00 3.69798000e+01	N
atom  3.33348000e+00 1.66920000e+00 3.78012000e+01	Si
atom  4.33781000e+00 2.28220000e+00 3.63985000e+01	N
atom  3.14871000e+00 7.99430000e-01 3.95794000e+01	N
atom  5.45345000e-01 4.64177000e-01 3.86918000e+01	N
atom  2.77257000e+00 2.86515000e+00 3.57165000e+01	Si
atom  8.93259000e+00 1.40886000e+00 3.51987000e+01	N
atom  8.27077000e+00 6.25851000e-01 3.89853000e+01	N
atom  5.13734000e+00 7.52849000e-01 3.60908000e+01	Si
atom  5.55257000e+00 1.57632000e+00 3.87315000e+01	N
atom  6.66738000e+00 1.81625000e-01 3.65911000e+01	N
atom  2.69505000e+00 3.85038000e+00 3.46343000e+00	N
atom  6.15056000e-01 3.84045000e+00 2.30218000e-01	Si
atom  2.11676000e+00 4.66921000e+00 6.80685000e-01	N
atom  -1.76881000e-02 4.83152000e+00 3.81531000e+00	N
atom  2.75786000e+00 5.08969000e+00 2.25299000e+00	Si
atom  6.13486000e+00 3.85622000e+00 1.34292000e-01	N
atom  6.39659000e+00 4.05554000e+00 2.91777000e+00	N
atom  6.50688000e+00 3.12257000e+00 4.40455000e+00	Si
atom  6.50667000e+00 2.87834000e+00 1.55765000e+00	Si
atom  8.17533000e+00 2.95919000e+00 4.69338000e+00	N
atom  9.50006000e-02 3.54812000e+00 4.96897000e+00	Si
atom  3.51419000e+00 3.42512000e+00 9.45424000e+00	Si
atom  8.58677000e-01 4.09786000e+00 6.42797000e+00	N
atom  4.32414000e+00 3.73164000e+00 6.64375000e+00	Si
atom  1.97470000e+00 3.12619000e+00 8.59498000e+00	N
atom  7.10682000e+00 4.56775000e+00 6.71104000e+00	Si
atom  6.44619000e+00 2.68096000e+00 8.84740000e+00	Si
atom  7.52055000e+00 3.25752000e+00 7.64195000e+00	N
atom  5.75152000e+00 4.00358000e+00 5.67305000e+00	N
atom  4.81792000e+00 3.19158000e+00 8.31907000e+00	N
atom  2.76954000e+00 3.10759000e+00 1.25887000e+01	Si
atom  1.10937000e+00 3.32360000e+00 1.31377000e+01	N
atom  2.17201000e-01 4.28008000e+00 1.20173000e+01	Si
atom  3.61009000e+00 4.58009000e+00 1.27170000e+01	N
atom  -1.69850000e-01 3.00514000e+00 1.07786000e+01	N
atom  3.66443000e+00 5.02986000e+00 9.96489000e+00	N
atom  6.74181000e+00 3.55733000e+00 1.03899000e+01	N
atom  7.25155000e+00 4.37309000e+00 1.40339000e+01	Si
atom  8.83903000e+00 3.68740000e+00 1.44416000e+01	N
atom  6.74924000e+00 2.76867000e+00 1.35027000e+01	N
atom  3.57601000e+00 4.30091000e+00 1.55287000e+01	N
atom  1.46550000e+00 4.54335000e+00 1.74484000e+01	N
atom  3.34342000e+00 3.04981000e+00 1.93905000e+01	Si
atom  -1.65377000e-01 4.30217000e+00 1.94375000e+01	N
atom  1.16826000e+00 2.89897000e+00 1.73234000e+01	Si
atom  3.87507000e+00 4.73846000e+00 1.95338000e+01	N
atom  3.35020000e+00 2.60567000e+00 1.54421000e+01	Si
atom  6.78174000e+00 4.66713000e+00 1.77364000e+01	N
atom  9.33549000e+00 3.32934000e+00 1.71465000e+01	N
atom  7.64047000e+00 3.13167000e+00 1.74703000e+01	Si
atom  4.08445000e+00 4.38638000e+00 2.24210000e+01	N
atom  8.35517000e-01 4.11446000e+00 2.07997000e+01	Si
atom  2.35046000e+00 3.04018000e+00 2.08586000e+01	N
atom  -6.70679000e-02 3.57369000e+00 2.21613000e+01	N
atom  3.03452000e+00 2.98128000e+00 2.24870000e+01	Si
atom  2.51856000e+00 2.74537000e+00 2.41454000e+01	N
atom  5.89550000e-01 4.39503000e+00 2.48018000e+01	N
atom  7.06855000e+00 4.27037000e+00 2.41103000e+01	Si
atom  8.78975000e+00 3.35077000e+00 2.18086000e+01	N
atom  6.48170000e+00 4.10897000e+00 2.03168000e+01	N
atom  7.76680000e+00 4.61969000e+00 2.13749000e+01	Si
atom  5.46084000e+00 4.60916000e+00 2.47188000e+01	N
atom  7.34508000e+00 2.55040000e+00 2.39581000e+01	N
atom  2.30544000e+00 4.42987000e+00 2.49683000e+01	Si
atom  3.18280000e+00 4.08059000e+00 2.64352000e+01	N
atom  1.63091000e+00 3.71286000e+00 2.89201000e+01	N
atom  1.54044000e-01 4.25035000e+00 2.95728000e+01	Si
atom  2.48627000e+00 4.75226000e+00 2.78311000e+01	Si
atom  9.55678000e+00 2.73247000e+00 2.79251000e+01	Si
atom  4.86378000e+00 3.63079000e+00 2.60797000e+01	Si
atom  7.06936000e+00 4.76689000e+00 2.80403000e+01	Si
atom  7.95242000e+00 3.24254000e+00 2.81845000e+01	N
atom  5.67759000e+00 3.74608000e+00 2.75631000e+01	N
atom  8.35348000e+00 4.85103000e+00 2.51816000e+01	N
atom  1.36279000e+00 3.90332000e+00 3.21992000e+01	Si
atom  4.70437000e-01 3.11382000e+00 3.33840000e+01	N
atom  2.73052000e+00 4.70495000e+00 3.29055000e+01	N
atom  4.30530000e+00 4.64536000e+00 3.23103000e+01	Si
atom  4.20032000e+00 4.08832000e+00 3.05953000e+01	N
atom  3.87778000e-01 4.77396000e+00 3.11704000e+01	N
atom  -1.98745000e-01 4.48577000e+00 3.47600000e+01	Si
atom  6.35393000e+00 3.25751000e+00 3.31077000e+01	Si
atom  9.38727000e+00 3.12592000e+00 3.27038000e+01	Si
atom  9.35480000e+00 3.86155000e+00 3.43199000e+01	N
atom  7.77547000e+00 2.73368000e+00 3.23029000e+01	N
atom  5.92565000e+00 4.91395000e+00 3.28843000e+01	N
atom  4.90240000e+00 2.71940000e+00 3.24931000e+01	N
atom  4.04306000e+00 4.38291000e+00 3.51445000e+01	N
atom  3.69410000e+00 3.17712000e+00 3.89055000e+01	N
atom  3.69364000e-01 3.62173000e+00 3.84362000e+01	N
atom  1.53967000e+00 4.19868000e+00 3.56252000e+01	N
atom  8.73052000e-01 4.72768000e+00 3.72011000e+01	Si
atom  3.11351000e+00 4.83818000e+00 3.92302000e+01	Si
atom  6.63841000e+00 2.92100000e+00 3.48510000e+01	N
atom  6.08026000e+00 4.22453000e+00 3.71782000e+01	N
atom  5.50807000e+00 3.31763000e+00 3.85406000e+01	Si
atom  8.30349000e+00 2.98476000e+00 3.53415000e+01	Si
atom  8.58199000e+00 3.74117000e+00 3.69003000e+01	N
atom  5.38715000e+00 3.55421000e+00 3.58103000e+01	Si
atom  1.86729000e+00 6.54048000e+00 2.90306000e+00	N
atom  5.98641000e-01 6.42061000e+00 4.16992000e+00	Si
atom  4.37861000e+00 5.39682000e+00 1.70982000e+00	N
atom  5.41676000e+00 7.11055000e+00 3.52926000e+00	N
atom  6.76875000e+00 6.22650000e+00 1.46323000e+00	N
atom  5.74420000e+00 5.67097000e+00 2.83877000e+00	Si
atom  5.53924000e+00 5.47322000e+00 4.48718000e-01	Si
atom  8.28911000e+00 7.03706000e+00 1.48435000e+00	Si
atom  9.62105000e+00 5.89919000e+00 1.29029000e+00	N
atom  9.61324000e-01 6.29480000e+00 8.28664000e+00	N
atom  1.07860000e+00 6.67071000e+00 5.79703000e+00	N
atom  1.71144000e+00 5.41045000e+00 6.97312000e+00	Si
atom  3.46165000e+00 5.31171000e+00 6.91690000e+00	N
atom  4.37727000e+00 7.42746000e+00 8.70492000e+00	N
atom  6.27063000e+00 6.03571000e+00 7.27205000e+00	N
atom  4.56121000e+00 6.58186000e+00 7.18902000e+00	Si
atom  8.53868000e+00 5.51342000e+00 6.28852000e+00	N
atom  7.67463000e+00 6.93068000e+00 6.78322000e+00	Si
atom  9.34992000e+00 6.46515000e+00 9.07154000e+00	Si
atom  1.18306000e+00 5.37328000e+00 1.11253000e+01	N
atom  3.74951000e+00 6.99756000e+00 1.41162000e+01	N
atom  2.85926000e+00 5.52717000e+00 1.14517000e+01	Si
atom  3.67143000e+00 7.09672000e+00 1.13735000e+01	N
atom  4.32957000e+00 5.33640000e+00 1.42048000e+01	Si
atom  3.47322000e-01 6.39242000e+00 9.91046000e+00	Si
atom  4.58567000e+00 6.46889000e+00 1.00692000e+01	Si
atom  8.92848000e+00 5.16564000e+00 1.00688000e+01	N
atom  6.24933000e+00 6.36302000e+00 1.05392000e+01	N
atom  8.68584000e+00 6.74849000e+00 1.29106000e+01	Si
atom  7.70383000e+00 5.34900000e+00 1.26468000e+01	N
atom  7.36741000e+00 5.10766000e+00 1.09068000e+01	Si
atom  4.51755000e-02 6.95184000e+00 1.78324000e+01	N
atom  2.40205000e+00 6.94919000e+00 1.65940000e+01	N
atom  2.97139000e+00 5.32267000e+00 1.68590000e+01	Si
atom  -8.61557000e-02 5.24691000e+00 1.79588000e+01	Si
atom  5.95375000e+00 5.16910000e+00 1.48358000e+01	N
atom  4.57326000e+00 5.93952000e+00 1.74078000e+01	N
atom  6.11533000e+00 5.68443000e+00 1.65028000e+01	Si
atom  5.92089000e+00 6.71608000e+00 1.97880000e+01	N
atom  5.64279000e+00 5.10923000e+00 1.90294000e+01	Si
atom  1.57297000e+00 5.61025000e+00 2.11712000e+01	N
atom  3.89315000e+00 6.81087000e+00 2.16167000e+01	N
atom  3.04630000e+00 5.90861000e+00 2.44909000e+01	N
atom  3.37139000e+00 5.25145000e+00 2.11187000e+01	Si
atom  8.32890000e-01 7.20716000e+00 2.09664000e+01	Si
atom  4.54850000e+00 5.71728000e+00 2.36044000e+01	Si
atom  7.16727000e+00 5.34590000e+00 2.27749000e+01	N
atom  8.59025000e+00 5.91779000e+00 2.05360000e+01	N
atom  7.12891000e+00 7.01235000e+00 2.33123000e+01	Si
atom  5.46758000e+00 7.18709000e+00 2.37998000e+01	N
atom  7.42663000e+00 7.15137000e+00 2.03685000e+01	Si
atom  1.58509000e+00 6.17757000e+00 2.73608000e+01	N
atom  3.59747000e+00 5.91934000e+00 2.87862000e+01	N
atom  2.82178000e+00 7.25732000e+00 2.80284000e+01	Si
atom  3.38697000e-01 7.23490000e+00 2.67514000e+01	Si
atom  6.32989000e+00 5.61988000e+00 2.93245000e+01	N
atom  8.69939000e+00 6.43412000e+00 2.60552000e+01	Si
atom  8.38206000e+00 5.78065000e+00 2.76212000e+01	N
atom  9.66941000e+00 5.42899000e+00 2.87816000e+01	Si
atom  8.16212000e-02 5.86146000e+00 3.36772000e+01	N
atom  2.59637000e+00 5.07788000e+00 3.45421000e+01	Si
atom  4.56009000e+00 6.34496000e+00 3.15364000e+01	N
atom  1.06446000e+00 7.27972000e+00 3.37849000e+01	Si
atom  9.04436000e+00 6.03215000e+00 3.02689000e+01	N
atom  5.95185000e+00 6.65889000e+00 3.27214000e+01	Si
atom  7.11495000e+00 7.02818000e+00 3.40252000e+01	N
atom  7.45448000e+00 6.76994000e+00 2.99165000e+01	Si
atom  4.71035000e+00 5.55469000e+00 2.99470000e+01	Si
atom  9.65173000e+00 6.37936000e+00 3.31515000e+01	N
atom  2.33281000e+00 6.78106000e+00 3.48149000e+01	N
atom  1.98353000e+00 5.72397000e+00 3.81662000e+01	N
atom  4.54798000e+00 5.75797000e+00 3.90327000e+01	N
atom  7.58025000e+00 5.12329000e+00 3.73034000e+01	Si
atom  4.74124000e+00 7.21900000e+00 3.64783000e+01	N
atom  8.28117000e+00 5.78024000e+00 3.87085000e+01	N
atom  7.38380000e+00 6.64426000e+00 3.64924000e+01	N
atom  3.46760000e+00 8.44750000e+00 1.51633000e+00	N
atom  1.79279000e+00 7.92751000e+00 1.86786000e+00	Si
atom  1.15508000e+00 9.29227000e+00 2.71875000e+00	N
atom  1.03327000e+00 7.73495000e+00 3.24514000e-01	N
atom  3.29578000e+00 9.39575000e+00 3.24674000e-02	Si
atom  -3.68810000e-01 9.08418000e+00 3.51918000e+00	Si
atom  4.94621000e+00 9.55494000e+00 3.90172000e+00	N
atom  4.90985000e+00 8.57686000e+00 2.47925000e+00	Si
atom  8.47637000e+00 8.07827000e+00 2.82748000e+00	N
atom  6.26851000e+00 9.14296000e+00 1.58835000e+00	N
atom  8.47389000e+00 8.10237000e+00 1.51763000e-01	N
atom  7.74366000e+00 9.62180000e+00 2.63079000e+00	Si
atom  6.23808000e+00 9.43340000e+00 -1.27831000e-01	Si
atom  1.28368000e+00 9.06545000e+00 7.12363000e+00	N
atom  3.03640000e+00 9.15873000e+00 6.62899000e+00	Si
atom  4.07124000e+00 7.84151000e+00 6.13461000e+00	N
atom  4.57024000e-01 7.55979000e+00 7.09590000e+00	Si
atom  9.45638000e+00 8.57560000e+00 5.30190000e+00	N
atom  6.78847000e+00 8.11090000e+00 5.78294000e+00	N
atom  7.91813000e+00 9.33635000e+00 5.48085000e+00	Si
atom  5.31955000e+00 8.12707000e+00 4.94154000e+00	Si
atom  4.80820000e+00 9.11591000e+00 8.93960000e+00	Si
atom  8.27383000e+00 7.53722000e+00 8.26657000e+00	N
atom  8.04239000e+00 9.22507000e+00 8.65244000e+00	Si
atom  6.56079000e+00 9.06796000e+00 9.45890000e+00	N
atom  4.35713000e-02 8.97142000e+00 1.17420000e+01	Si
atom  5.48065000e-01 8.00767000e+00 1.04579000e+01	N
atom  -2.29193000e-01 8.96927000e+00 1.45426000e+01	Si
atom  1.56594000e+00 9.07138000e+00 1.45936000e+01	N
atom  4.27321000e+00 7.94921000e+00 1.27399000e+01	Si
atom  -3.28713000e-01 7.91606000e+00 1.30913000e+01	N
atom  3.80698000e+00 9.61212000e+00 1.32293000e+01	N
atom  6.75298000e+00 8.04281000e+00 1.08042000e+01	Si
atom  5.81452000e+00 8.71871000e+00 1.20797000e+01	N
atom  7.43200000e+00 8.95369000e+00 1.30921000e+01	Si
atom  8.14951000e+00 7.92553000e+00 1.17445000e+01	N
atom  8.21417000e+00 7.79751000e+00 1.42216000e+01	N
atom  6.33660000e+00 9.42247000e+00 1.44951000e+01	N
atom  2.76279000e+00 9.49655000e+00 1.93814000e+01	Si
atom  2.74298000e+00 7.89075000e+00 1.50954000e+01	Si
atom  1.59664000e+00 7.83880000e+00 1.79037000e+01	Si
atom  4.03341000e+00 8.75555000e+00 1.59967000e+01	N
atom  4.00758000e+00 8.32532000e+00 1.86061000e+01	N
atom  1.99513000e+00 9.60503000e+00 1.75918000e+01	N
atom  1.71793000e+00 7.92744000e+00 1.96734000e+01	N
atom  -3.58222000e-01 9.21734000e+00 1.62179000e+01	N
atom  8.25272000e+00 8.47773000e+00 1.96499000e+01	N
atom  4.67949000e+00 7.64284000e+00 1.71411000e+01	Si
atom  7.42866000e+00 8.59342000e+00 1.56645000e+01	Si
atom  6.39311000e+00 7.48948000e+00 1.65738000e+01	N
atom  5.98070000e-01 8.76182000e+00 2.38250000e+01	Si
atom  3.44146000e+00 8.74877000e+00 2.39527000e+01	N
atom  1.40417000e+00 8.14883000e+00 2.24122000e+01	N
atom  3.73151000e+00 9.20890000e+00 2.09738000e+01	N
atom  3.14980000e+00 8.25876000e+00 2.23501000e+01	Si
atom  4.55719000e+00 7.71663000e+00 2.01864000e+01	Si
atom  7.26313000e+00 7.99523000e+00 2.19132000e+01	N
atom  5.24361000e+00 8.81791000e+00 2.42197000e+01	Si
atom  7.67113000e+00 9.50130000e+00 2.10608000e+01	Si
atom  8.12507000e+00 7.41245000e+00 2.46461000e+01	N
atom  1.11191000e+00 8.03166000e+00 2.53969000e+01	N
atom  2.43641000e+00 8.70392000e+00 2.88666000e+01	N
atom  3.67026000e+00 7.71905000e+00 2.66169000e+01	N
atom  8.65569000e-01 9.47490000e+00 2.88321000e+01	Si
atom  -1.33287000e-01 8.12679000e+00 2.82199000e+01	N
atom  4.23621000e+00 9.32152000e+00 2.68841000e+01	Si
atom  3.65137000e+00 9.53142000e+00 2.96420000e+01	Si
atom  2.80294000e+00 7.54629000e+00 2.50544000e+01	Si
atom  7.59851000e+00 8.38882000e+00 2.92159000e+01	N
atom  4.89519000e+00 9.75478000e+00 2.84383000e+01	N
atom  9.32060000e+00 8.12853000e+00 2.67125000e+01	N
atom  9.10634000e+00 8.78356000e+00 2.50211000e+01	Si
atom  5.67059000e+00 9.37328000e+00 2.58374000e+01	N
atom  8.83930000e+00 9.03441000e+00 2.80991000e+01	Si
atom  6.46088000e-01 8.57765000e+00 3.17091000e+01	Si
atom  1.48130000e-01 8.68411000e+00 3.33303000e+01	N
atom  4.09545000e+00 9.03876000e+00 3.12692000e+01	N
atom  3.65036000e+00 7.69585000e+00 3.22871000e+01	Si
atom  1.92920000e+00 7.55033000e+00 3.22663000e+01	N
atom  4.65302000e+00 7.53143000e+00 3.37324000e+01	N
atom  8.52403000e+00 7.72251000e+00 3.32698000e+01	Si
atom  8.75510000e+00 9.19462000e+00 3.22050000e+01	N
atom  7.52601000e+00 8.98190000e+00 3.10262000e+01	Si
atom  7.00610000e+00 7.33125000e+00 3.15063000e+01	N
atom  3.31982000e+00 8.19789000e+00 3.86751000e+01	N
atom  6.56321000e-01 8.41332000e+00 3.79645000e+01	N
atom  3.69572000e+00 7.77898000e+00 3.52323000e+01	Si
atom  3.52403000e+00 9.47214000e+00 3.56874000e+01	N
atom  1.83752000e+00 7.46452000e+00 3.86184000e+01	Si
atom  8.88990000e+00 7.37230000e+00 3.60325000e+01	Si
atom  6.28939000e+00 9.18932000e+00 3.55104000e+01	N
atom  6.13217000e+00 7.91900000e+00 3.88502000e+01	N
atom  9.00685000e+00 8.27485000e+00 3.75291000e+01	N
atom  6.21510000e+00 7.39369000e+00 3.54898000e+01	Si
atom  8.94755000e+00 8.66236000e+00 3.48122000e+01	N
atom  7.84114000e+00 7.44948000e+00 3.85561000e+01	Si
atom  4.71664000e+00 7.26304000e+00 3.81704000e+01	Si
atom  1.59381000e+00 1.08780000e+01 2.18643000e+00	Si
atom  3.98977000e+00 1.08936000e+01 4.21013000e+00	Si
atom  1.99774000e+00 1.05557000e+01 4.04992000e-01	N
atom  2.93415000e+00 1.17311000e+01 2.95320000e+00	N
atom  1.85851000e-01 1.19282000e+01 2.42163000e+00	N
atom  7.58521000e+00 1.03863000e+01 4.20736000e+00	N
atom  8.68342000e+00 1.07063000e+01 1.64096000e+00	N
atom  6.82386000e+00 1.19317000e+01 4.35455000e+00	Si
atom  8.85512000e+00 9.79649000e+00 1.44513000e-01	Si
atom  -2.68808000e-01 1.02210000e+01 4.86473000e+00	N
atom  2.77797000e+00 1.03048000e+01 5.32546000e+00	N
atom  3.28152000e+00 1.10221000e+01 9.25244000e+00	Si
atom  1.15229000e+00 1.02925000e+01 5.76367000e+00	Si
atom  9.24988000e-01 1.15407000e+01 6.94949000e+00	N
atom  6.96223000e-01 1.03548000e+01 8.20644000e+00	Si
atom  1.64558000e+00 1.08564000e+01 9.54844000e+00	N
atom  3.77401000e+00 1.00249000e+01 7.91977000e+00	N
atom  6.18994000e+00 1.14517000e+01 7.77628000e+00	N
atom  9.24722000e+00 9.84487000e+00 9.87641000e+00	N
atom  8.34067000e+00 1.00369000e+01 7.07506000e+00	N
atom  7.70380000e+00 1.16992000e+01 7.05442000e+00	Si
atom  2.16155000e+00 1.02534000e+01 1.34575000e+01	Si
atom  1.00704000e+00 1.03664000e+01 1.21466000e+01	N
atom  1.00127000e+00 1.16297000e+01 1.09445000e+01	Si
atom  4.20846000e+00 1.00275000e+01 1.03823000e+01	N
atom  2.35312000e+00 1.19108000e+01 1.40217000e+01	N
atom  9.37051000e+00 1.06711000e+01 1.13605000e+01	Si
atom  4.86053000e+00 1.01531000e+01 1.18669000e+01	Si
atom  8.13710000e+00 1.04321000e+01 1.26074000e+01	N
atom  5.67978000e+00 1.15701000e+01 1.23411000e+01	N
atom  7.15098000e+00 1.17431000e+01 1.32059000e+01	Si
atom  3.63423000e+00 1.01120000e+01 1.71565000e+01	Si
atom  3.97883000e+00 1.08535000e+01 1.87099000e+01	N
atom  4.25692000e+00 1.11168000e+01 1.58215000e+01	N
atom  4.27730000e-01 1.02639000e+01 1.73384000e+01	Si
atom  1.99306000e-01 1.12733000e+01 1.94790000e+01	Si
atom  5.08379000e-01 1.19388000e+01 1.78138000e+01	N
atom  4.74909000e+00 9.89979000e+00 1.47310000e+01	Si
atom  8.39947000e+00 9.86858000e+00 1.63933000e+01	N
atom  5.64223000e+00 1.13588000e+01 1.90319000e+01	Si
atom  7.79178000e+00 1.14599000e+01 1.65269000e+01	Si
atom  6.79315000e+00 1.17727000e+01 1.78591000e+01	N
atom  1.20257000e+00 1.03844000e+01 2.40720000e+01	N
atom  3.53485000e+00 1.18465000e+01 2.41409000e+01	N
atom  1.76688000e+00 1.08287000e+01 2.00381000e+01	N
atom  2.81706000e+00 1.03481000e+01 2.45101000e+01	Si
atom  4.15282000e+00 1.19466000e+01 2.12998000e+01	N
atom  2.83375000e-01 1.16911000e+01 2.47183000e+01	Si
atom  3.08147000e+00 1.19082000e+01 1.99797000e+01	Si
atom  4.89960000e+00 1.03653000e+01 2.15327000e+01	Si
atom  8.74572000e+00 1.11941000e+01 2.34557000e+01	Si
atom  5.46637000e+00 1.02006000e+01 2.31621000e+01	N
atom  6.25648000e+00 1.03801000e+01 2.04197000e+01	N
atom  8.75727000e+00 1.04465000e+01 2.18796000e+01	N
atom  5.26621000e+00 1.18398000e+01 2.38403000e+01	Si
atom  1.02047000e+00 1.11201000e+01 2.80446000e+01	N
atom  3.01196000e+00 1.03119000e+01 2.62481000e+01	N
atom  2.24696000e+00 1.16607000e+01 2.69918000e+01	Si
atom  8.26040000e+00 1.02401000e+01 2.47560000e+01	N
atom  8.50630000e+00 1.20645000e+01 2.78686000e+01	Si
atom  7.63616000e+00 1.04978000e+01 2.75404000e+01	N
atom  6.95710000e+00 1.05439000e+01 2.59011000e+01	Si
atom  6.58047000e+00 9.86470000e+00 2.88286000e+01	Si
atom  6.07686000e+00 1.19612000e+01 2.54119000e+01	N
atom  3.71446000e+00 1.06897000e+01 3.18956000e+01	Si
atom  3.21818000e+00 1.11139000e+01 3.02877000e+01	N
atom  2.70459000e+00 1.05231000e+01 3.32818000e+01	N
atom  -2.15259000e-01 1.12494000e+01 3.11130000e+01	Si
atom  5.70767000e-01 9.86105000e+00 3.05324000e+01	N
atom  4.09147000e-01 1.17411000e+01 3.26056000e+01	N
atom  6.72940000e+00 1.04077000e+01 3.04599000e+01	N
atom  5.03645000e+00 1.15847000e+01 3.23885000e+01	N
atom  7.40199000e+00 1.14072000e+01 3.41927000e+01	N
atom  6.10640000e+00 1.19043000e+01 3.10905000e+01	Si
atom  2.28567000e+00 1.04445000e+01 3.49948000e+01	Si
atom  7.27488000e-01 1.14286000e+01 3.78217000e+01	N
atom  1.74231000e+00 1.18541000e+01 3.92536000e+01	Si
atom  1.31357000e-01 9.91542000e+00 3.72613000e+01	Si
atom  7.43479000e-01 9.79485000e+00 3.56374000e+01	N
atom  4.55842000e+00 1.17753000e+01 3.50270000e+01	N
atom  4.72106000e+00 1.03040000e+01 3.96524000e+01	N
atom  7.33842000e+00 1.13710000e+01 3.78163000e+01	Si
atom  5.03747000e+00 1.03701000e+01 3.59485000e+01	Si
atom  4.80738000e+00 1.17574000e+01 3.87787000e+01	Si
atom  7.76652000e+00 1.00161000e+01 3.51899000e+01	Si
atom  5.71977000e+00 1.12175000e+01 3.73894000e+01	N
atom  8.43555000e+00 1.07260000e+01 3.66387000e+01	N
atom  7.48426000e+00 1.03741000e+01 3.91827000e+01	N
atom  3.09899000e+00 1.34603000e+01 3.13091000e+00	Si
atom  3.92416000e-01 1.34945000e+01 1.62084000e+00	Si
atom  1.53290000e+00 1.41425000e+01 2.73010000e+00	N
atom  1.21391000e+00 1.32408000e+01 1.27144000e-01	N
atom  7.28070000e+00 1.28657000e+01 3.00319000e+00	N
atom  8.60915000e+00 1.34220000e+01 7.87912000e-01	N
atom  8.70278000e+00 1.23459000e+01 2.14020000e+00	Si
atom  6.32751000e+00 1.42513000e+01 2.90159000e+00	Si
atom  5.13039000e+00 1.21272000e+01 4.75842000e+00	N
atom  3.26655000e+00 1.40463000e+01 4.84179000e+00	N
atom  3.46807000e-01 1.40600000e+01 8.38770000e+00	N
atom  1.31667000e-01 1.31140000e+01 6.90308000e+00	Si
atom  3.93771000e+00 1.25137000e+01 9.41161000e+00	N
atom  5.33519000e-01 1.43336000e+01 5.74380000e+00	N
atom  6.56458000e+00 1.30022000e+01 9.81397000e+00	N
atom  4.85573000e+00 1.36771000e+01 5.48951000e+00	Si
atom  5.41338000e+00 1.27680000e+01 8.54363000e+00	Si
atom  7.73123000e+00 1.43881000e+01 5.45114000e+00	Si
atom  8.83072000e+00 1.25809000e+01 8.04132000e+00	N
atom  7.70120000e+00 1.26322000e+01 5.63967000e+00	N
atom  5.11795000e+00 1.38914000e+01 7.22777000e+00	N
atom  8.35615000e+00 1.31485000e+01 9.63239000e+00	Si
atom  2.03884000e+00 1.29315000e+01 1.14098000e+01	N
atom  1.65667000e+00 1.31847000e+01 1.30866000e+01	Si
atom  3.30458000e+00 1.36467000e+01 1.05661000e+01	Si
atom  -3.93739000e-02 1.34624000e+01 1.31839000e+01	N
atom  4.62984000e+00 1.41022000e+01 1.17310000e+01	N
atom  7.36016000e+00 1.33216000e+01 1.24482000e+01	N
atom  5.93546000e+00 1.30689000e+01 1.14328000e+01	Si
atom  9.07668000e+00 1.34455000e+01 1.23295000e+01	Si
atom  5.00704000e+00 1.36615000e+01 1.45166000e+01	N
atom  9.29509000e+00 1.24102000e+01 1.09914000e+01	N
atom  3.63136000e+00 1.25795000e+01 1.51496000e+01	Si
atom  3.08310000e+00 1.36170000e+01 1.65187000e+01	N
atom  1.80831000e+00 1.32420000e+01 1.76337000e+01	Si
atom  2.46253000e+00 1.33116000e+01 1.92653000e+01	N
atom  5.31653000e-01 1.44327000e+01 1.76130000e+01	N
atom  7.10165000e+00 1.20506000e+01 1.50287000e+01	N
atom  5.59012000e+00 1.30348000e+01 1.96176000e+01	N
atom  9.48673000e+00 1.37113000e+01 1.79603000e+01	Si
atom  9.54746000e+00 1.35028000e+01 1.53084000e+01	Si
atom  5.78912000e+00 1.41514000e+01 1.69230000e+01	N
atom  8.99379000e+00 1.26967000e+01 1.67061000e+01	N
atom  6.58317000e+00 1.34829000e+01 1.82891000e+01	Si
atom  6.46970000e+00 1.36608000e+01 1.53701000e+01	Si
atom  8.05102000e+00 1.41214000e+01 1.87952000e+01	N
atom  -2.31925000e-01 1.29056000e+01 2.36503000e+01	N
atom  2.81333000e+00 1.33616000e+01 2.47202000e+01	Si
atom  8.13022000e+00 1.28422000e+01 2.34266000e+01	N
atom  5.22509000e+00 1.35592000e+01 2.12696000e+01	Si
atom  5.57239000e+00 1.32289000e+01 2.29991000e+01	N
atom  7.06879000e+00 1.41825000e+01 2.30727000e+01	Si
atom  1.41371000e+00 1.26985000e+01 2.57520000e+01	N
atom  2.33692000e-01 1.38823000e+01 2.64141000e+01	Si
atom  3.38022000e+00 1.27376000e+01 2.78073000e+01	N
atom  3.71420000e+00 1.25554000e+01 2.94969000e+01	Si
atom  4.06399000e+00 1.42301000e+01 2.54679000e+01	N
atom  4.43143000e+00 1.39829000e+01 2.71247000e+01	Si
atom  6.52643000e+00 1.39495000e+01 2.91007000e+01	Si
atom  7.94308000e+00 1.30217000e+01 2.91824000e+01	N
atom  6.90780000e+00 1.34311000e+01 2.59245000e+01	Si
atom  5.37508000e+00 1.29506000e+01 2.98977000e+01	N
atom  8.54691000e+00 1.30768000e+01 2.64252000e+01	N
atom  6.07755000e+00 1.39464000e+01 2.74069000e+01	N
atom  2.73564000e+00 1.34804000e+01 3.34518000e+01	N
atom  1.17819000e+00 1.27591000e+01 3.36953000e+01	Si
atom  2.68713000e+00 1.37613000e+01 3.01691000e+01	N
atom  1.11982000e-01 1.40451000e+01 3.40362000e+01	N
atom  2.88175000e+00 1.42308000e+01 3.18267000e+01	Si
atom  9.46207000e+00 1.32812000e+01 3.37528000e+01	N
atom  7.86011000e+00 1.30390000e+01 3.35252000e+01	Si
atom  8.69950000e+00 1.30440000e+01 3.07207000e+01	Si
atom  6.26704000e+00 1.37375000e+01 3.39575000e+01	N
atom  7.47570000e+00 1.26799000e+01 3.19046000e+01	N
atom  5.79635000e+00 1.20562000e+01 3.38799000e+01	Si
atom  3.20112000e+00 1.24449000e+01 3.85097000e+01	N
atom  1.11392000e+00 1.41795000e+01 3.72112000e+01	N
atom  3.58219000e+00 1.41237000e+01 3.63529000e+01	N
atom  2.75994000e+00 1.39949000e+01 3.79009000e+01	Si
atom  3.32101000e+00 1.29789000e+01 3.51150000e+01	Si
atom  5.44722000e-01 1.26422000e+01 3.65284000e+01	Si
atom  1.72896000e+00 1.21578000e+01 3.53101000e+01	N
atom  5.78108000e+00 1.27961000e+01 3.97036000e+01	N
atom  9.11382000e+00 1.38444000e+01 3.73160000e+01	Si
atom  7.99306000e+00 1.29580000e+01 3.81303000e+01	N
atom  7.35473000e+00 1.35962000e+01 3.95815000e+01	Si
atom  1.50849000e+00 1.58948000e+01 2.75360000e+00	Si
atom  2.76646000e+00 1.62087000e+01 1.65132000e+00	N
atom  1.94351000e+00 1.65423000e+01 4.30867000e+00	N
atom  3.26348000e+00 1.64731000e+01 1.06102000e-01	Si
atom  5.59956000e-02 1.67123000e+01 2.62223000e+00	N
atom  4.43605000e+00 1.60852000e+01 2.30970000e+00	Si
atom  6.94942000e+00 1.56915000e+01 2.20523000e+00	N
atom  8.28159000e+00 1.62417000e+01 3.25343000e+00	Si
atom  8.84526000e+00 1.49109000e+01 4.28768000e+00	N
atom  6.76823000e+00 1.64619000e+01 6.91057000e-01	Si
atom  6.07936000e+00 1.46097000e+01 4.66375000e+00	N
atom  5.83813000e+00 1.64508000e+01 4.83561000e+00	Si
atom  4.54021000e+00 1.43320000e+01 2.51175000e+00	N
atom  2.38101000e+00 1.58328000e+01 6.97884000e+00	N
atom  1.55076000e+00 1.53211000e+01 8.52677000e+00	Si
atom  2.03175000e+00 1.51473000e+01 5.39566000e+00	Si
atom  2.83814000e+00 1.51009000e+01 9.68165000e+00	N
atom  8.66984000e+00 1.48656000e+01 9.52402000e+00	N
atom  7.46844000e+00 1.52237000e+01 6.92137000e+00	N
atom  5.14173000e+00 1.65154000e+01 6.39326000e+00	N
atom  5.38077000e+00 1.59316000e+01 9.10708000e+00	N
atom  5.90929000e+00 1.54831000e+01 7.53473000e+00	Si
atom  8.50068000e+00 1.59075000e+01 8.06286000e+00	Si
atom  1.66621000e+00 1.58292000e+01 1.40490000e+01	Si
atom  3.63019000e-01 1.61080000e+01 1.29573000e+01	N
atom  2.67483000e+00 1.45771000e+01 1.35641000e+01	N
atom  4.44118000e+00 1.48328000e+01 1.33331000e+01	Si
atom  3.90990000e+00 1.65152000e+01 9.85819000e+00	Si
atom  8.91576000e+00 1.59337000e+01 1.08727000e+01	Si
atom  5.52150000e+00 1.63007000e+01 1.35463000e+01	N
atom  7.36191000e+00 1.64975000e+01 1.12527000e+01	N
atom  5.24148000e-02 1.59147000e+01 1.68011000e+01	Si
atom  4.02269000e+00 1.62386000e+01 1.59520000e+01	N
atom  4.21202000e+00 1.48679000e+01 1.69500000e+01	Si