lattice_vector  3.98930552e+01 0.00000000e+00 0.00000000e+00
lattice_vector  2.44274512e-15 3.98930552e+01 0.00000000e+00
lattice_vector  2.44274512e-15 2.44274512e-15 3.98930552e+01
atom  1.20493000e+00 2.79462000e+00 2.79158000e+00	N
atom  4.10798000e-01 4.31052000e+00 3.05299000e+00	Si
atom  3.10233000e-01 1.23329000e+00 3.00748000e+00	Si
atom  5.82405000e-01 7.68217000e-01 4.62540000e+00	N
atom  -1.55288000e-01 4.55849000e+00 4.69334000e+00	N
atom  1.46668000e+00 5.34851000e+00 4.54122000e-01	Si
atom  1.19318000e+00 5.61999000e+00 2.17645000e+00	N
atom  1.61180000e+00 6.79010000e+00 4.54261000e+00	N
atom  1.72231000e+00 8.63318000e+00 4.21681000e-01	Si
atom  1.75259000e+00 6.95343000e+00 3.14288000e-02	N
atom  1.81514000e+00 8.74594000e+00 2.19879000e+00	N
atom  6.98672000e-01 6.96060000e-01 8.01592000e+00	Si
atom  7.89198000e-01 4.24736000e+00 9.46463000e+00	N
atom  -2.95648000e-01 1.92472000e+00 8.64091000e+00	N
atom  -4.59956000e-02 5.10636000e+00 8.19828000e+00	Si
atom  8.64131000e-01 5.98289000e+00 7.03501000e+00	N
atom  3.41702000e-01 9.47719000e+00 8.23169000e+00	Si
atom  1.64898000e+00 8.41623000e+00 8.73262000e+00	N
atom  2.65203000e-01 6.14290000e+00 5.38437000e+00	Si
atom  8.36605000e-01 2.07566000e+00 1.14219000e+01	N
atom  2.98402000e-01 1.63213000e+00 1.30129000e+01	Si
atom  1.57141000e+00 8.57050000e-01 1.38245000e+01	N
atom  -6.98899000e-02 2.84499000e+00 1.01154000e+01	Si
atom  -2.90426000e-01 3.11475000e+00 1.39800000e+01	N
atom  -1.35392000e-01 5.40190000e+00 1.22005000e+01	N
atom  1.68146000e+00 8.84939000e+00 1.30637000e+01	Si
atom  1.22877000e+00 9.20865000e+00 1.13870000e+01	N
atom  4.10188000e-01 9.80589000e+00 1.38175000e+01	N
atom  1.40099000e+00 7.31077000e+00 1.36739000e+01	N
atom  1.42688000e+00 6.08677000e+00 1.24546000e+01	Si
atom  8.22432000e-01 2.28963000e+00 1.91689000e+01	N
atom  2.89932000e-02 2.83471000e+00 1.57845000e+01	Si
atom  1.18028000e+00 4.82809000e+00 1.75550000e+01	Si
atom  -1.57757000e-01 3.79753000e+00 1.72033000e+01	N
atom  6.42278000e-01 6.27529000e-01 1.94903000e+01	Si
atom  1.82736000e+00 2.72122000e+00 1.56071000e+01	N
atom  4.16473000e-01 8.40870000e+00 1.60698000e+01	N
atom  1.50322000e+00 5.57958000e+00 1.59796000e+01	N
atom  7.14216000e-01 6.92587000e+00 1.52284000e+01	Si
atom  9.57582000e-01 9.98210000e+00 1.54075000e+01	Si
atom  8.66815000e-01 5.83397000e+00 1.89628000e+01	N
atom  1.00710000e+00 1.39712000e+00 2.35736000e+01	N
atom  -9.92982000e-02 4.97291000e-01 2.10914000e+01	N
atom  3.32108000e-01 5.41972000e+00 2.17543000e+01	N
atom  -9.07127000e-03 5.52624000e+00 2.45258000e+01	N
atom  6.00406000e-01 9.95184000e+00 2.32210000e+01	N
atom  1.13001000e-01 8.60932000e+00 2.41967000e+01	Si
atom  1.62885000e+00 7.84394000e+00 2.45538000e+01	N
atom  1.65870000e+00 6.10480000e+00 2.45193000e+01	Si
atom  1.23029000e+00 8.35974000e+00 1.99994000e+01	N
atom  -3.70220000e-01 5.61401000e+00 2.01497000e+01	Si
atom  -1.10312000e-02 4.82082000e+00 2.61136000e+01	Si
atom  4.41177000e-01 1.76855000e+00 2.52206000e+01	Si
atom  1.61364000e+00 2.50137000e+00 2.74053000e+01	Si
atom  7.38404000e-01 2.75455000e+00 2.88922000e+01	N
atom  9.12353000e-01 3.33507000e+00 2.60556000e+01	N
atom  1.12907000e+00 9.96119000e-01 2.65978000e+01	N
atom  -7.33669000e-02 5.29941000e+00 2.78351000e+01	N
atom  9.25142000e-02 4.25340000e+00 2.96406000e+01	Si
atom  6.71046000e-01 6.71730000e+00 2.86122000e+01	Si
atom  2.31212000e-01 9.31154000e+00 2.70144000e+01	Si
atom  -2.66075000e-01 8.11964000e+00 2.81746000e+01	N
atom  7.37119000e-01 3.63790000e+00 3.11860000e+01	N
atom  9.36317000e-01 2.02401000e+00 3.04930000e+01	Si
atom  6.09201000e-02 4.27989000e+00 3.26246000e+01	Si
atom  4.01628000e-01 3.29969000e+00 3.39491000e+01	N
atom  -1.58883000e-01 1.70478000e+00 3.34711000e+01	Si
atom  6.41097000e-01 5.27797000e-01 3.43380000e+01	N
atom  -1.51165000e-01 1.33259000e+00 3.17646000e+01	N
atom  1.36354000e+00 3.10334000e-01 2.99321000e+01	N
atom  1.11207000e+00 5.67311000e+00 3.27855000e+01	N
atom  1.68869000e+00 8.14288000e+00 3.17089000e+01	N
atom  9.19512000e-01 9.77694000e+00 3.22120000e+01	Si
atom  5.21113000e-01 6.86711000e+00 3.17336000e+01	Si
atom  1.19566000e+00 9.66485000e+00 3.39320000e+01	N
atom  4.50527000e-01 5.94821000e+00 3.01769000e+01	N
atom  1.47824000e+00 3.48729000e+00 3.52221000e+01	Si
atom  9.81001000e-01 1.73621000e+00 3.78027000e+01	Si
atom  9.17528000e-01 3.36053000e+00 3.69127000e+01	N
atom  2.77741000e-01 4.52826000e+00 3.95171000e+01	N
atom  -2.32772000e-01 4.26469000e+00 3.77830000e+01	Si
atom  1.55464000e+00 1.67130000e+00 3.94080000e+01	N
atom  1.93305000e+00 6.19445000e-01 3.68119000e+01	N
atom  3.96484000e-01 8.64839000e+00 3.52442000e+01	Si
atom  4.02342000e-01 9.52526000e+00 3.96543000e+01	N
atom  -1.75844000e-01 5.71603000e+00 3.68340000e+01	N
atom  1.67371000e+00 7.52107000e+00 3.55920000e+01	N
atom  1.47398000e+00 6.06898000e+00 3.65143000e+01	Si
atom  3.30969000e-01 9.53927000e+00 3.67608000e+01	N
atom  1.18494000e-01 1.08605000e+01 2.89085000e+00	N
atom  1.73496000e+00 1.39687000e+01 1.78433000e-01	N
atom  1.76639000e+00 1.04299000e+01 2.64438000e+00	Si
atom  7.01246000e-01 1.12905000e+01 -3.98475000e-02	Si
atom  1.54965000e+00 1.53504000e+01 4.87934000e+00	N
atom  1.70316000e+00 1.56192000e+01 5.61081000e-01	Si
atom  7.08031000e-01 1.81040000e+01 3.92623000e+00	N
atom  5.61481000e-01 1.85124000e+01 1.23977000e+00	N
atom  1.45322000e+00 1.60015000e+01 2.23787000e+00	N
atom  2.94743000e-01 1.72892000e+01 2.44889000e+00	Si
atom  1.34001000e-01 1.96982000e+01 4.31757000e+00	Si
atom  1.19737000e+00 2.00024000e+01 1.73032000e+00	Si
atom  -2.79407000e-01 1.05701000e+01 9.35075000e+00	N
atom  -3.46437000e-01 1.13027000e+01 6.09168000e+00	Si
atom  -1.28898000e-01 1.27981000e+01 5.23509000e+00	N
atom  1.57157000e+00 1.28103000e+01 8.61203000e+00	N
atom  1.34950000e-01 1.38350000e+01 8.83417000e+00	Si
atom  1.02662000e+00 1.40095000e+01 5.84171000e+00	Si
atom  6.45183000e-02 1.45396000e+01 7.28977000e+00	N
atom  1.09053000e+00 1.05682000e+01 6.95470000e+00	N
atom  4.16535000e-01 1.71310000e+01 6.55155000e+00	N
atom  1.38703000e+00 1.70798000e+01 5.12256000e+00	Si
atom  5.51821000e-01 1.72796000e+01 9.11737000e+00	N
atom  5.04355000e-01 1.89442000e+01 9.63714000e+00	Si
atom  1.47903000e+00 1.93315000e+01 8.25603000e+00	N
atom  1.63024000e+00 1.76851000e+01 7.78105000e+00	Si
atom  1.01787000e+00 1.20352000e+01 1.11808000e+01	N
atom  3.92165000e-01 1.36034000e+01 1.17051000e+01	Si
atom  3.66184000e-01 1.27196000e+01 1.39124000e+01	N
atom  5.30047000e-01 1.46514000e+01 1.02716000e+01	N
atom  1.74790000e-01 1.05091000e+01 1.10426000e+01	Si
atom  1.89298000e+00 1.42234000e+01 1.23073000e+01	N
atom  4.21736000e-01 1.63267000e+01 1.05767000e+01	Si
atom  4.07682000e-01 1.69527000e+01 1.23283000e+01	N
atom  1.14382000e+00 1.93072000e+01 1.11780000e+01	N
atom  6.00835000e-01 1.93531000e+01 1.39118000e+01	N
atom  1.83019000e+00 1.78432000e+01 1.20355000e+01	Si
atom  2.75919000e-01 2.02445000e+01 1.24401000e+01	Si
atom  2.00561000e+00 1.67642000e+01 1.49399000e+01	N
atom  8.85533000e-01 1.33163000e+01 1.88015000e+01	N
atom  1.11466000e+00 1.48684000e+01 1.79769000e+01	Si
atom  2.96853000e-01 1.47801000e+01 1.63895000e+01	N
atom  2.91348000e-01 1.63443000e+01 1.84723000e+01	N
atom  1.77346000e+00 1.52418000e+01 1.56518000e+01	Si
atom  1.39502000e+00 1.83911000e+01 1.52167000e+01	Si
atom  1.07707000e+00 1.99037000e+01 1.95722000e+01	Si
atom  -1.79155000e-01 1.81084000e+01 1.60254000e+01	N
atom  9.94272000e-01 1.13353000e+01 2.09961000e+01	N
atom  7.82263000e-02 1.48907000e+01 2.19926000e+01	Si
atom  1.70771000e+00 1.43115000e+01 2.17680000e+01	N
atom  -3.02042000e-01 1.08394000e+01 2.19751000e+01	Si
atom  -3.32464000e-01 1.46791000e+01 2.36553000e+01	N
atom  3.91788000e-01 1.65351000e+01 2.13985000e+01	N
atom  6.33563000e-01 1.89946000e+01 2.23180000e+01	N
atom  1.26827000e+00 1.74448000e+01 2.26684000e+01	Si
atom  1.10539000e+00 1.70739000e+01 2.43137000e+01	N
atom  1.12757000e+00 1.68808000e+01 1.98431000e+01	Si
atom  1.88440000e+00 2.02441000e+01 2.23205000e+01	Si
atom  1.79890000e+00 1.27832000e+01 2.47614000e+01	Si
atom  1.24577000e-01 1.24247000e+01 2.52426000e+01	N
atom  2.13929000e-01 1.09245000e+01 2.74664000e+01	N
atom  1.73002000e+00 1.53716000e+01 2.81397000e+01	N
atom  1.98872000e+00 1.45349000e+01 2.51105000e+01	N
atom  1.07587000e+00 1.78865000e+01 2.69462000e+01	N
atom  8.92138000e-01 1.95519000e+01 2.75081000e+01	Si
atom  5.37901000e-01 1.55818000e+01 2.48945000e+01	Si
atom  1.12144000e+00 1.89059000e+01 2.93669000e+01	N
atom  3.70313000e-01 1.63579000e+01 2.76534000e+01	Si
atom  7.36296000e-01 1.40615000e+01 3.25864000e+01	Si
atom  1.34788000e+00 1.23776000e+01 3.02063000e+01	Si
atom  -5.63675000e-03 1.24899000e+01 3.28985000e+01	N
atom  1.76397000e+00 1.37164000e+01 3.12539000e+01	N
atom  1.85388000e+00 1.08999000e+01 3.11781000e+01	N
atom  -3.61444000e-01 1.24088000e+01 3.00608000e+01	N
atom  1.45165000e+00 1.54980000e+01 3.32723000e+01	N
atom  5.73829000e-01 1.80697000e+01 3.37776000e+01	N
atom  3.86712000e-02 1.65867000e+01 3.30138000e+01	Si
atom  -3.40911000e-02 1.70597000e+01 3.13868000e+01	N
atom  -2.17365000e-01 1.80708000e+01 3.00416000e+01	Si
atom  8.52491000e-01 1.11652000e+01 3.67770000e+01	Si
atom  4.26825000e-01 1.43151000e+01 3.76821000e+01	N
atom  1.24963000e+00 1.17807000e+01 3.83491000e+01	N
atom  1.67216000e+00 1.34658000e+01 3.84274000e+01	Si
atom  -1.97384000e-01 1.43148000e+01 3.50941000e+01	N
atom  8.96041000e-01 1.59880000e+01 3.76434000e+01	Si
atom  6.35182000e-01 1.64721000e+01 3.93298000e+01	N
atom  4.04075000e-01 1.82185000e+01 3.94494000e+01	Si
atom  -2.37407000e-01 1.68644000e+01 3.66076000e+01	N
atom  1.77539000e+00 1.86588000e+01 3.85561000e+01	N
atom  4.66194000e-01 2.32618000e+01 2.08717000e+00	N
atom  9.84312000e-01 2.48251000e+01 2.78021000e+00	Si
atom  6.03418000e-01 2.24834000e+01 4.69320000e-01	Si
atom  1.93478000e-02 2.06152000e+01 2.83013000e+00	N
atom  -3.51673000e-01 2.24576000e+01 4.65977000e+00	N
atom  1.75848000e+00 2.12686000e+01 6.84921000e-01	N
atom  3.23857000e-02 2.54217000e+01 4.15935000e+00	N
atom  3.20272000e-01 2.59600000e+01 1.67984000e+00	N
atom  1.38174000e+00 2.88411000e+01 4.21267000e+00	Si
atom  -8.67214000e-02 2.81325000e+01 3.65214000e+00	N
atom  -2.71760000e-01 2.68212000e+01 2.45056000e-01	Si
atom  1.77422000e-01 2.33560000e+01 8.12560000e+00	Si
atom  7.33958000e-01 2.18739000e+01 7.33149000e+00	N
atom  1.08082000e+00 2.20702000e+01 5.60171000e+00	Si
atom  1.77683000e+00 2.41549000e+01 8.31897000e+00	N
atom  1.49045000e+00 2.04464000e+01 5.13501000e+00	N
atom  3.91851000e-01 2.97352000e+01 5.53522000e+00	N
atom  -1.01566000e-01 2.55823000e+01 5.92266000e+00	Si
atom  8.37668000e-01 2.95903000e+01 8.30709000e+00	N
atom  -3.37171000e-01 2.99091000e+01 9.57386000e+00	Si
atom  9.95716000e-01 2.63862000e+01 6.98471000e+00	N
atom  1.08268000e+00 2.58076000e+01 8.63102000e+00	Si
atom  1.27676000e+00 2.71563000e+01 9.65336000e+00	N
atom  1.47973000e+00 2.30803000e+01 1.28313000e+01	Si
atom  1.31570000e+00 2.39151000e+01 1.13377000e+01	N
atom  2.67347000e-02 2.37900000e+01 1.35360000e+01	N
atom  1.55905000e+00 2.14659000e+01 1.24372000e+01	N
atom  -2.15693000e-01 2.47457000e+01 1.12079000e+01	Si
atom  2.18275000e-01 2.55364000e+01 1.37633000e+01	Si
atom  5.78682000e-01 2.76019000e+01 1.12131000e+01	Si
atom  4.84865000e-02 2.61943000e+01 1.21183000e+01	N
atom  1.59451000e+00 2.62628000e+01 1.43986000e+01	N
atom  7.32500000e-01 2.29435000e+01 1.93658000e+01	N
atom  1.00049000e+00 2.28494000e+01 1.63599000e+01	N
atom  5.17321000e-01 2.21628000e+01 1.78188000e+01	Si
atom  1.47923000e+00 2.07062000e+01 1.80344000e+01	N
atom  9.46269000e-01 2.88026000e+01 1.52400000e+01	N
atom  6.26322000e-01 2.94697000e+01 1.95800000e+01	Si
atom  8.88940000e-01 2.97697000e+01 1.78790000e+01	N
atom  1.00373000e+00 3.02924000e+01 1.61328000e+01	Si
atom  7.48635000e-01 2.62887000e+01 1.85697000e+01	N
atom  1.35670000e+00 2.31047000e+01 2.31213000e+01	Si
atom  -1.93620000e-01 2.35659000e+01 2.23828000e+01	N
atom  1.76196000e+00 2.10654000e+01 2.07688000e+01	N
atom  1.75294000e+00 2.14293000e+01 2.35047000e+01	N
atom  1.14052000e+00 2.37014000e+01 2.47149000e+01	N
atom  -1.35975000e-01 2.81231000e+01 2.05068000e+01	N
atom  4.97771000e-01 2.62192000e+01 2.34128000e+01	N
atom  9.81527000e-01 2.68121000e+01 2.02348000e+01	Si
atom  1.36352000e+00 3.01458000e+01 2.23405000e+01	Si
atom  -4.26106000e-01 2.55027000e+01 2.06497000e+01	N
atom  1.57221000e+00 2.42421000e+01 2.88890000e+01	Si
atom  7.81028000e-02 2.37120000e+01 2.96194000e+01	N
atom  6.99193000e-01 2.04723000e+01 2.58622000e+01	N
atom  -3.14899000e-01 2.64781000e+01 2.49642000e+01	Si
atom  2.30278000e-01 2.69897000e+01 2.79740000e+01	Si
atom  5.37969000e-01 2.86262000e+01 2.85025000e+01	N
atom  -3.89305000e-01 2.99953000e+01 2.80016000e+01	Si
atom  6.73302000e-01 2.70585000e+01 2.62573000e+01	N
atom  1.49224000e+00 2.59601000e+01 2.86021000e+01	N
atom  2.04118000e+00 2.94436000e+01 2.51662000e+01	N
atom  1.27342000e+00 2.22143000e+01 3.18479000e+01	N
atom  1.05788000e+00 2.10811000e+01 3.32044000e+01	Si
atom  5.31037000e-01 2.48594000e+01 3.21694000e+01	N
atom  3.85849000e-02 2.34460000e+01 3.12910000e+01	Si
atom  9.62083000e-01 2.19641000e+01 3.47084000e+01	N
atom  4.95141000e-01 2.94667000e+01 3.38607000e+01	N
atom  2.18372000e-01 2.84920000e+01 3.11409000e+01	N
atom  7.40649000e-01 2.80569000e+01 3.28699000e+01	Si
atom  1.41922000e+00 2.87597000e+01 2.99706000e+01	Si
atom  1.80927000e+00 2.54076000e+01 3.31650000e+01	Si
atom  -4.84552000e-01 2.70212000e+01 3.35244000e+01	N
atom  1.31976000e+00 2.52202000e+01 3.48651000e+01	N
atom  6.44577000e-01 2.10806000e+01 3.73502000e+01	N
atom  8.59060000e-01 2.25084000e+01 3.62741000e+01	Si
atom  7.27572000e-01 2.37281000e+01 3.91779000e+01	N
atom  -3.12746000e-01 2.38116000e+01 3.66451000e+01	N
atom  -3.12233000e-01 2.51766000e+01 3.54867000e+01	Si
atom  6.00716000e-01 2.77632000e+01 3.89087000e+01	N
atom  1.36010000e+00 2.96542000e+01 3.54013000e+01	Si
atom  4.05828000e-01 2.91670000e+01 3.68594000e+01	N
atom  1.46443000e+00 2.94845000e+01 3.84395000e+01	Si
atom  5.80100000e-01 3.32005000e+01 2.71524000e-01	N
atom  1.79175000e-01 3.06479000e+01 1.38373000e+00	N
atom  1.46023000e+00 3.50000000e+01 2.15027000e+00	N
atom  -1.16022000e-01 3.46847000e+01 3.05626000e+00	Si
atom  6.54717000e-01 3.46712000e+01 4.66113000e+00	N
atom  1.94624000e+00 3.05340000e+01 1.64515000e+00	Si
atom  1.04016000e+00 3.74772000e+01 3.44084000e+00	N
atom  1.64086000e-01 3.75325000e+01 6.55315000e-01	N
atom  1.26383000e-01 3.83154000e+01 2.22264000e+00	Si
atom  8.57012000e-01 3.99283000e+01 1.89968000e+00	N
atom  1.34941000e+00 3.47248000e+01 7.08431000e+00	N
atom  7.77333000e-02 3.20331000e+01 7.01434000e+00	N
atom  1.50313000e+00 3.29489000e+01 7.17180000e+00	Si
atom  5.55366000e-02 3.40564000e+01 9.68008000e+00	N
atom  -2.28817000e-01 3.02689000e+01 7.04833000e+00	Si
atom  -1.04275000e-01 3.51662000e+01 6.11034000e+00	Si
atom  1.27787000e+00 3.75058000e+01 5.17106000e+00	Si
atom  1.27191000e+00 3.99109000e+01 9.51063000e+00	N
atom  8.46642000e-02 3.68630000e+01 6.24883000e+00	N
atom  -2.23285000e-01 3.94945000e+01 7.01909000e+00	N
atom  2.34051000e-01 3.28228000e+01 1.26828000e+01	N
atom  -5.06653000e-02 3.45020000e+01 1.31408000e+01	Si
atom  -4.54479000e-03 3.14751000e+01 1.03233000e+01	N
atom  1.43593000e+00 3.49116000e+01 1.40809000e+01	N
atom  1.11553000e+00 3.26990000e+01 9.95917000e+00	Si
atom  -4.34709000e-02 3.89453000e+01 1.00679000e+01	Si
atom  7.60915000e-01 3.81322000e+01 1.14607000e+01	N
atom  2.58398000e-01 3.72874000e+01 1.40936000e+01	N
atom  -1.84687000e-01 3.56932000e+01 1.18354000e+01	N
atom  -5.62733000e-02 3.58767000e+01 9.97353000e+00	Si
atom  -3.74549000e-01 3.73005000e+01 1.25157000e+01	Si
atom  1.64214000e+00 3.62518000e+01 9.71591000e+00	N
atom  1.82115000e+00 3.65691000e+01 1.39280000e+01	Si
atom  4.98482000e-01 3.37690000e+01 1.67134000e+01	N
atom  -8.12906000e-02 3.96065000e+01 1.67380000e+01	Si
atom  -2.93201000e-01 3.69597000e+01 1.86545000e+01	Si
atom  3.75234000e-01 3.74126000e+01 1.71401000e+01	N
atom  1.57139000e+00 3.95691000e+01 1.63985000e+01	N
atom  1.38243000e+00 3.05842000e+01 2.06582000e+01	N
atom  2.56643000e-01 3.30017000e+01 2.03218000e+01	N
atom  1.38783000e+00 3.49494000e+01 2.34866000e+01	Si
atom  6.42997000e-01 3.47384000e+01 2.03000000e+01	Si
atom  6.51546000e-02 3.46866000e+01 2.45611000e+01	N
atom  1.69903000e+00 3.20821000e+01 1.99348000e+01	Si
atom  9.64673000e-03 3.03989000e+01 2.33877000e+01	N
atom  1.04914000e+00 3.54856000e+01 2.17876000e+01	N
atom  1.38162000e+00 3.85066000e+01 2.25860000e+01	N
atom  6.04415000e-01 3.72082000e+01 2.16003000e+01	Si
atom  2.96996000e-01 3.99378000e+01 2.26768000e+01	Si
atom  8.42264000e-01 3.75135000e+01 1.99023000e+01	N
atom  -1.36761000e-01 3.42508000e+01 2.90041000e+01	N
atom  1.04821000e+00 3.20929000e+01 2.51109000e+01	N
atom  4.61762000e-01 3.14980000e+01 2.83113000e+01	N
atom  5.72394000e-01 3.04124000e+01 2.50805000e+01	Si
atom  -3.57544000e-01 3.30684000e+01 2.50544000e+01	Si
atom  1.25652000e+00 3.83118000e+01 2.59886000e+01	N
atom  1.47425000e+00 3.93581000e+01 2.73010000e+01	Si
atom  3.37471000e-02 3.86741000e+01 2.81219000e+01	N
atom  1.01788000e+00 3.21729000e+01 3.39118000e+01	Si
atom  6.72730000e-01 3.41493000e+01 3.04953000e+01	Si
atom  9.08332000e-01 3.38395000e+01 3.43426000e+01	N
atom  -3.90138000e-01 3.45932000e+01 3.18757000e+01	N
atom  -3.24124000e-01 3.48039000e+01 3.36097000e+01	Si
atom  2.60220000e-01 3.64608000e+01 3.16674000e+01	Si
atom  9.32743000e-01 3.80983000e+01 3.15204000e+01	N
atom  5.83132000e-01 3.62975000e+01 3.34154000e+01	N
atom  2.85794000e-01 3.86630000e+01 2.98946000e+01	Si
atom  1.56088000e+00 3.56018000e+01 3.08092000e+01	N
atom  1.90233000e+00 3.66801000e+01 3.44861000e+01	Si
atom  1.40310000e+00 3.45305000e+01 3.58240000e+01	Si
atom  6.66297000e-01 3.28923000e+01 3.85188000e+01	Si
atom  1.40227000e+00 3.13179000e+01 3.81888000e+01	N
atom  1.63209000e+00 3.14044000e+01 3.53926000e+01	N
atom  1.82167000e+00 3.38051000e+01 3.73286000e+01	N
atom  8.91920000e-02 3.71487000e+01 3.69275000e+01	Si
atom  1.41469000e+00 3.77603000e+01 3.94109000e+01	Si
atom  7.07642000e-01 3.84890000e+01 3.79973000e+01	N
atom  7.18388000e-02 3.55716000e+01 3.61337000e+01	N
atom  1.61189000e+00 3.77227000e+01 3.58640000e+01	N
atom  2.98044000e+00 2.42707000e+00 3.04390000e+00	Si
atom  3.33768000e+00 1.20249000e+00 1.81150000e+00	N
atom  3.81963000e+00 3.96621000e+00 3.19715000e+00	N
atom  3.02836000e+00 4.66249000e+00 2.35059000e-01	N
atom  3.36108000e+00 1.61803000e+00 4.52330000e+00	N
atom  3.85635000e+00 5.00197000e+00 1.75892000e+00	Si
atom  2.08507000e+00 5.78343000e-01 7.53847000e-01	Si
atom  3.62006000e+00 6.59962000e+00 2.39951000e+00	N
atom  4.15125000e+00 8.23695000e+00 4.54609000e+00	N
atom  1.98719000e+00 6.97085000e+00 2.72778000e+00	Si
atom  3.46583000e+00 1.75351000e+00 7.69069000e+00	Si
atom  3.81840000e+00 3.43774000e+00 7.97197000e+00	N
atom  3.49677000e+00 1.50112000e+00 9.49923000e+00	N
atom  2.12684000e+00 7.05363000e-01 5.39435000e+00	Si
atom  1.96287000e+00 1.28056000e+00 7.00231000e+00	N
atom  4.27352000e+00 3.03861000e+00 9.68966000e+00	Si
atom  3.96210000e+00 9.94056000e+00 4.93155000e+00	Si
atom  2.66530000e+00 9.46488000e+00 7.54439000e+00	Si
atom  3.09242000e+00 7.04772000e+00 5.33365000e+00	Si
atom  2.91035000e+00 7.99307000e+00 6.72831000e+00	N
atom  3.36677000e+00 6.03511000e+00 8.62766000e+00	N
atom  3.82985000e+00 5.51171000e+00 5.85031000e+00	N
atom  2.04662000e+00 6.96358000e+00 7.85703000e+00	Si
atom  3.73906000e+00 4.18989000e+00 1.25489000e+01	Si
atom  2.30375000e+00 4.80077000e+00 1.33434000e+01	N
atom  3.17081000e+00 1.01500000e+00 1.32326000e+01	Si
atom  3.65544000e+00 4.20106000e+00 1.08176000e+01	N
atom  2.05769000e+00 1.14122000e+00 1.05828000e+01	Si
atom  3.76671000e+00 2.55526000e+00 1.28525000e+01	N
atom  3.88123000e+00 8.85403000e+00 1.05122000e+01	N
atom  2.38210000e+00 6.63781000e+00 1.11342000e+01	N
atom  3.40118000e+00 9.10402000e+00 1.32562000e+01	N
atom  3.74184000e+00 5.81137000e+00 1.03405000e+01	Si
atom  2.22462000e+00 8.25897000e+00 1.03958000e+01	Si
atom  3.86336000e+00 5.47534000e-01 1.48140000e+01	N
atom  3.80167000e+00 1.81046000e+00 1.91749000e+01	N
atom  2.20888000e+00 1.01971000e+00 1.54397000e+01	Si
atom  4.06008000e+00 4.61354000e+00 1.56609000e+01	N
atom  2.57159000e+00 3.91944000e+00 1.80685000e+01	N
atom  4.01411000e+00 3.69042000e+00 1.71868000e+01	Si
atom  2.40941000e+00 4.38348000e+00 1.50928000e+01	Si
atom  2.40225000e+00 2.88237000e+00 1.94992000e+01	Si
atom  3.55011000e+00 7.00590000e+00 1.86188000e+01	N
atom  2.14826000e+00 6.87207000e+00 1.96258000e+01	Si
atom  2.52421000e+00 1.03852000e+01 1.55679000e+01	N
atom  3.75091000e+00 2.70417000e+00 2.35286000e+01	N
atom  2.33623000e+00 2.13589000e+00 2.26654000e+01	Si
atom  2.23790000e+00 3.24225000e+00 2.12535000e+01	N
atom  3.28437000e+00 7.70375000e-01 2.20358000e+01	N
atom  4.04667000e+00 4.36916000e+00 2.38754000e+01	Si
atom  2.61048000e+00 5.20085000e+00 2.34285000e+01	N
atom  3.64803000e+00 5.69306000e-01 2.03885000e+01	Si
atom  1.92163000e+00 4.86719000e+00 2.19057000e+01	Si
atom  2.79151000e+00 6.11389000e+00 2.10418000e+01	N
atom  2.92303000e+00 9.78380000e+00 2.15579000e+01	N
atom  3.34757000e+00 1.00612000e+01 2.43133000e+01	N
atom  1.88975000e+00 9.94008000e+00 2.01520000e+01	Si
atom  3.82352000e+00 3.24195000e+00 2.92983000e+01	Si
atom  3.15191000e+00 3.29547000e+00 2.76222000e+01	N
atom  3.57724000e+00 4.71313000e+00 2.67569000e+01	Si
atom  3.24961000e+00 1.02294000e+01 2.86711000e+01	N
atom  2.85176000e+00 8.80034000e+00 2.54002000e+01	Si
atom  2.33008000e+00 7.21608000e+00 2.85637000e+01	N
atom  4.16775000e+00 8.23906000e+00 2.63933000e+01	N
atom  2.29171000e+00 5.54845000e+00 2.60637000e+01	N
atom  3.60973000e+00 6.26849000e+00 2.92864000e+01	Si
atom  3.17601000e+00 8.59873000e+00 2.79609000e+01	Si
atom  1.95020000e+00 9.33194000e+00 2.68182000e+01	N
atom  3.27088000e+00 4.08756000e+00 3.28429000e+01	N
atom  2.55274000e+00 3.88651000e+00 3.13041000e+01	Si
atom  2.86640000e+00 2.29631000e+00 3.05114000e+01	N
atom  2.91397000e+00 6.11655000e-01 3.07389000e+01	Si
atom  4.02649000e+00 2.90403000e+00 3.39794000e+01	Si
atom  3.16068000e+00 4.69032000e+00 2.99948000e+01	N
atom  2.66763000e+00 5.54288000e+00 3.35589000e+01	Si
atom  3.36249000e+00 7.15945000e+00 3.35177000e+01	N
atom  3.40424000e+00 7.82675000e+00 3.19958000e+01	Si
atom  4.30680000e+00 9.30155000e+00 3.15542000e+01	N
atom  2.69884000e+00 1.02711000e+01 3.45572000e+01	Si
atom  2.69626000e+00 2.36105000e+00 3.48750000e+01	N
atom  2.41706000e+00 5.01467000e+00 3.53374000e+01	N
atom  2.14201000e+00 6.99189000e-01 3.51288000e+01	Si
atom  3.90958000e+00 5.04184000e+00 3.63578000e+01	Si
atom  3.23665000e+00 7.13622000e+00 3.89134000e+01	Si
atom  3.40300000e+00 7.61116000e+00 3.51364000e+01	Si
atom  2.79435000e+00 6.11585000e+00 3.75705000e+01	N
atom  3.13472000e+00 8.86407000e+00 3.92641000e+01	N
atom  3.84386000e+00 9.23117000e+00 3.53995000e+01	N
atom  2.80518000e+00 1.08117000e+01 3.95320000e+00	N
atom  2.78446000e+00 1.30706000e+01 1.24640000e+00	Si
atom  2.52213000e+00 1.34225000e+01 2.95560000e+00	N
atom  3.03849000e+00 1.25033000e+01 4.37464000e+00	Si
atom  2.37925000e+00 1.50760000e+01 3.32783000e+00	Si
atom  2.08726000e+00 1.13972000e+01 1.09131000e+00	N
atom  4.33338000e+00 1.34467000e+01 4.16751000e-01	N
atom  3.97653000e+00 1.56911000e+01 3.22591000e+00	N
atom  2.81933000e+00 1.97453000e+01 2.27415000e+00	N
atom  3.24688000e+00 1.62156000e+01 6.36249000e-02	N
atom  2.38155000e+00 1.30129000e+01 5.99345000e+00	N
atom  2.43010000e+00 1.18164000e+01 7.38188000e+00	Si
atom  3.83611000e+00 1.39087000e+01 6.44544000e+00	Si
atom  2.86685000e+00 1.06871000e+01 8.86866000e+00	N
atom  3.68514000e+00 1.05782000e+01 6.54126000e+00	N
atom  4.12848000e+00 1.28757000e+01 7.80639000e+00	N
atom  4.08231000e+00 1.70922000e+01 6.61733000e+00	Si
atom  2.82793000e+00 1.95959000e+01 5.74487000e+00	Si
atom  3.83326000e+00 1.66394000e+01 9.62244000e+00	Si
atom  2.70092000e+00 1.78781000e+01 5.92727000e+00	N
atom  3.13185000e+00 1.69729000e+01 8.17110000e+00	N
atom  3.17193000e+00 1.17963000e+01 1.32714000e+01	N
atom  3.85040000e+00 1.21948000e+01 1.05396000e+01	N
atom  3.06435000e+00 1.51949000e+01 1.15449000e+01	Si
atom  3.61887000e+00 1.05083000e+01 1.42849000e+01	Si
atom  2.04841000e+00 1.30620000e+01 1.36048000e+01	Si
atom  3.93797000e+00 1.48559000e+01 1.00505000e+01	N
atom  2.20696000e+00 1.20124000e+01 9.93700000e+00	Si
atom  3.50714000e+00 1.66931000e+01 1.40716000e+01	Si
atom  3.17875000e+00 1.81541000e+01 1.31164000e+01	N
atom  2.54361000e+00 1.67537000e+01 1.08922000e+01	N
atom  4.12655000e+00 1.55350000e+01 1.29234000e+01	N
atom  4.12636000e+00 2.02751000e+01 1.14308000e+01	N
atom  2.65479000e+00 1.38781000e+01 1.49583000e+01	N
atom  3.26624000e+00 1.07434000e+01 1.71015000e+01	Si
atom  3.47174000e+00 1.23554000e+01 1.73199000e+01	N
atom  3.53694000e+00 1.37533000e+01 1.64071000e+01	Si
atom  2.32936000e+00 1.23509000e+01 1.87628000e+01	Si
atom  2.70956000e+00 1.50648000e+01 1.71238000e+01	N
atom  2.27497000e+00 1.06652000e+01 1.86069000e+01	N
atom  3.60343000e+00 1.83540000e+01 1.93516000e+01	Si
atom  4.09048000e+00 1.81632000e+01 1.64787000e+01	Si
atom  3.91861000e+00 1.73884000e+01 1.79991000e+01	N
atom  3.99296000e+00 2.00873000e+01 1.87160000e+01	N
atom  2.58834000e+00 1.58711000e+01 1.97079000e+01	N
atom  2.66856000e+00 1.90910000e+01 1.62304000e+01	N
atom  3.69812000e+00 1.57434000e+01 1.83886000e+01	Si
atom  1.93871000e+00 1.83896000e+01 1.97521000e+01	N
atom  3.28140000e+00 1.27887000e+01 2.02292000e+01	N
atom  2.32065000e+00 1.21273000e+01 2.32465000e+01	N
atom  2.08671000e+00 1.26434000e+01 2.15964000e+01	Si
atom  2.26267000e+00 1.04149000e+01 2.30333000e+01	Si
atom  4.11876000e+00 1.80109000e+01 2.20675000e+01	Si
atom  2.96412000e+00 1.54299000e+01 2.13273000e+01	Si
atom  2.87457000e+00 1.68548000e+01 2.22057000e+01	N
atom  3.54954000e+00 1.96220000e+01 2.24119000e+01	N
atom  4.19730000e+00 1.25574000e+01 2.64832000e+01	Si
atom  2.29058000e+00 1.25875000e+01 2.87768000e+01	N
atom  4.01256000e+00 1.42420000e+01 2.69444000e+01	N
atom  2.96209000e+00 1.42016000e+01 2.83851000e+01	Si
atom  2.55794000e+00 1.21155000e+01 2.62124000e+01	N
atom  3.50173000e+00 1.51066000e+01 2.55910000e+01	Si
atom  3.88065000e+00 1.16970000e+01 2.92543000e+01	Si
atom  1.98151000e+00 1.11450000e+01 2.75539000e+01	Si
atom  2.69420000e+00 1.94765000e+01 2.92065000e+01	Si
atom  3.45941000e+00 1.67990000e+01 2.60414000e+01	N
atom  3.82443000e+00 1.84243000e+01 2.83768000e+01	N
atom  2.10356000e+00 1.78374000e+01 2.55526000e+01	Si
atom  3.05678000e+00 1.92306000e+01 2.50624000e+01	N
atom  3.52549000e+00 1.38670000e+01 3.11839000e+01	Si
atom  3.63934000e+00 1.08538000e+01 3.18332000e+01	Si
atom  3.76205000e+00 1.12068000e+01 3.35109000e+01	N
atom  3.98005000e+00 1.48526000e+01 3.25324000e+01	N
atom  4.00132000e+00 1.22475000e+01 3.09090000e+01	N
atom  3.94603000e+00 1.47537000e+01 2.97361000e+01	N
atom  2.20465000e+00 1.85962000e+01 3.41873000e+01	Si
atom  3.05454000e+00 1.56971000e+01 3.36893000e+01	Si
atom  3.33017000e+00 1.74295000e+01 3.35852000e+01	N
atom  3.68075000e+00 1.95917000e+01 3.05546000e+01	N
atom  2.32557000e+00 1.99367000e+01 3.31016000e+01	N
atom  3.74277000e+00 2.02213000e+01 3.21631000e+01	Si
atom  3.07415000e+00 1.36787000e+01 3.74639000e+01	N
atom  3.41118000e+00 1.22785000e+01 3.66125000e+01	Si
atom  2.18936000e+00 1.14517000e+01 3.58153000e+01	N
atom  3.67444000e+00 1.51799000e+01 3.69257000e+01	Si
atom  2.90737000e+00 1.74053000e+01 3.86607000e+01	Si
atom  2.55382000e+00 1.63443000e+01 3.73551000e+01	N
atom  1.93822000e+00 1.98543000e+01 3.72676000e+01	Si
atom  4.09875000e+00 1.55138000e+01 3.52621000e+01	N
atom  2.22804000e+00 1.90542000e+01 3.58369000e+01	N
atom  3.29436000e+00 2.34476000e+01 3.99678000e+00	Si
atom  3.37376000e+00 2.12253000e+01 1.37677000e+00	Si
atom  2.60967000e+00 2.49554000e+01 3.41297000e+00	N
atom  3.24179000e+00 2.24275000e+01 2.59796000e+00	N
atom  3.34468000e+00 2.64766000e+01 3.74439000e+00	Si
atom  3.63351000e+00 2.71747000e+01 2.22166000e+00	N
atom  3.87658000e+00 2.89311000e+01 2.60073000e+00	Si
atom  2.33229000e+00 2.95821000e+01 3.02912000e+00	N
atom  2.31529000e+00 2.96217000e+01 2.05474000e-01	N
atom  4.06054000e+00 2.64025000e+01 8.19535000e-01	Si
atom  2.63359000e+00 2.59565000e+01 -1.39278000e-01	N
atom  2.50212000e+00 2.75414000e+01 4.81689000e+00	N
atom  2.00247000e+00 2.09362000e+01 8.12468000e+00	Si
atom  3.29535000e+00 2.07627000e+01 6.96580000e+00	N
atom  2.48080000e+00 2.31503000e+01 5.50856000e+00	N
atom  3.18267000e+00 2.38543000e+01 6.99517000e+00	Si
atom  2.34507000e+00 2.16653000e+01 9.73782000e+00	N
atom  3.13139000e+00 2.79858000e+01 7.61359000e+00	N
atom  2.00036000e+00 2.84506000e+01 8.83805000e+00	Si
atom  3.57772000e+00 2.54857000e+01 6.41668000e+00	N
atom  2.55389000e+00 2.69067000e+01 6.41026000e+00	Si
atom  2.72022000e+00 2.33427000e+01 1.40854000e+01	N
atom  2.40357000e+00 2.06895000e+01 1.11753000e+01	Si
atom  3.80969000e+00 2.42394000e+01 1.00606000e+01	N
atom  2.33036000e+00 2.34214000e+01 9.91743000e+00	Si
atom  4.16512000e+00 2.41852000e+01 1.36685000e+01	Si
atom  3.65442000e+00 2.54666000e+01 1.25815000e+01	N
atom  3.02074000e+00 2.94945000e+01 1.15488000e+01	Si
atom  2.80970000e+00 2.68576000e+01 1.31678000e+01	Si
atom  3.61402000e+00 2.78867000e+01 1.43517000e+01	N
atom  2.17238000e+00 2.80250000e+01 1.20499000e+01	N
atom  2.86926000e+00 2.97646000e+01 9.77902000e+00	N
atom  2.97139000e+00 2.04580000e+01 1.72573000e+01	Si
atom  3.93489000e+00 2.41175000e+01 1.80461000e+01	Si
atom  2.97017000e+00 2.46482000e+01 1.67334000e+01	N
atom  3.38627000e+00 2.29558000e+01 1.91760000e+01	N
atom  3.53476000e+00 2.19629000e+01 1.64724000e+01	N
atom  2.56597000e+00 2.32367000e+01 1.58084000e+01	Si
atom  2.10922000e+00 2.76234000e+01 1.53616000e+01	Si