lattice_vector  4.00244188e+01 0.00000000e+00 0.00000000e+00
lattice_vector  2.45078882e-15 4.00244188e+01 0.00000000e+00
lattice_vector  2.45078882e-15 2.45078882e-15 4.00244188e+01
atom  7.70323000e-01 3.81220000e+00 3.35959000e+00	N
atom  4.91166000e-01 1.06550000e+00 3.61284000e+00	N
atom  -1.40148000e-01 2.50899000e+00 4.17448000e+00	Si
atom  -2.35218000e-01 5.48035000e-01 2.13362000e+00	Si
atom  1.37784000e+00 3.96011000e+00 -1.74659000e-01	N
atom  -2.01222000e-01 5.31122000e+00 3.27729000e+00	Si
atom  8.53800000e-01 6.78077000e+00 3.52123000e+00	N
atom  9.49939000e-01 8.47560000e+00 3.26254000e+00	Si
atom  2.79524000e-01 9.62604000e+00 4.33481000e+00	N
atom  -1.49071000e-02 8.81314000e+00 1.77705000e+00	N
atom  8.95356000e-01 9.00412000e+00 3.32880000e-01	Si
atom  3.82635000e-01 2.74016000e+00 5.77069000e+00	N
atom  7.82132000e-01 3.90744000e+00 8.44764000e+00	N
atom  5.73606000e-01 4.19948000e+00 6.68326000e+00	Si
atom  1.63585000e+00 2.53331000e+00 9.06150000e+00	Si
atom  1.58995000e+00 2.03168000e-01 5.79799000e+00	N
atom  1.69548000e+00 5.11071000e+00 5.83997000e+00	N
atom  1.67368000e+00 7.25529000e+00 7.67928000e+00	N
atom  4.47063000e-02 6.18576000e+00 9.72791000e+00	N
atom  3.71949000e-01 8.25175000e+00 7.10252000e+00	Si
atom  1.55148000e+00 7.00906000e+00 9.37154000e+00	Si
atom  1.14661000e+00 9.72266000e+00 6.90577000e+00	N
atom  8.02312000e-01 4.46661000e+00 1.35487000e+01	N
atom  1.46216000e+00 1.88233000e+00 1.15421000e+01	Si
atom  3.23762000e-01 1.85188000e+00 1.00365000e+01	N
atom  2.74985000e-01 9.23490000e+00 1.13102000e+01	Si
atom  1.07517000e+00 9.40372000e+00 1.28208000e+01	N
atom  -1.35369000e-01 7.07906000e+00 1.36467000e+01	N
atom  1.44710000e+00 7.89420000e+00 1.36487000e+01	Si
atom  1.51423000e+00 8.42760000e+00 1.04389000e+01	N
atom  -7.78811000e-02 5.52233000e+00 1.44951000e+01	Si
atom  5.30462000e-01 1.00920000e+00 1.59254000e+01	Si
atom  3.68892000e-01 4.27489000e+00 1.72573000e+01	Si
atom  8.35614000e-01 2.74178000e+00 1.61904000e+01	N
atom  -6.06278000e-02 5.35452000e-01 1.88639000e+01	Si
atom  1.00281000e+00 3.24437000e-01 1.74712000e+01	N
atom  -1.86499000e-01 5.19584000e+00 1.87517000e+01	N
atom  1.80196000e+00 6.89585000e+00 1.66526000e+01	Si
atom  1.09876000e+00 7.67141000e+00 1.81190000e+01	N
atom  5.88669000e-01 5.67717000e+00 1.61413000e+01	N
atom  -4.82443000e-01 6.87971000e+00 1.83428000e+01	Si
atom  5.25538000e-01 2.50967000e+00 2.11466000e+01	Si
atom  -2.11953000e-01 1.69147000e+00 2.25715000e+01	N
atom  -3.90387000e-01 1.59652000e+00 2.43035000e+01	Si
atom  1.77910000e+00 3.73437000e+00 2.10370000e+01	N
atom  9.72713000e-01 1.36278000e+00 1.99800000e+01	N
atom  6.67364000e-01 2.38189000e-01 2.48073000e+01	N
atom  1.78353000e+00 5.42467000e+00 2.14763000e+01	Si
atom  1.38843000e+00 9.50942000e+00 2.34796000e+01	N
atom  1.01144000e-01 5.78229000e+00 2.15697000e+01	N
atom  2.13248000e-01 7.21557000e+00 2.41604000e+01	N
atom  1.25483000e+00 8.89710000e+00 2.07242000e+01	N
atom  -1.40500000e-01 8.63120000e+00 2.33873000e+01	Si
atom  1.15112000e-03 5.67506000e+00 2.33243000e+01	Si
atom  -4.79272000e-01 9.08692000e+00 2.04627000e+01	Si
atom  1.75036000e+00 6.55850000e+00 2.48076000e+01	Si
atom  1.36891000e+00 4.61977000e+00 2.85821000e+01	N
atom  4.02491000e-01 9.79268000e-01 2.76163000e+01	N
atom  3.87760000e-01 9.92897000e-01 2.93551000e+01	Si
atom  1.51459000e+00 9.32057000e-01 2.62085000e+01	Si
atom  5.94597000e-01 3.53219000e+00 2.97149000e+01	Si
atom  -5.15383000e-01 2.67082000e+00 2.56617000e+01	N
atom  1.55929000e+00 5.19286000e+00 2.58767000e+01	N
atom  -2.33467000e-01 9.24830000e+00 2.86260000e+01	N
atom  8.04708000e-01 9.59380000e+00 2.61165000e+01	N
atom  1.23769000e+00 1.00348000e+01 2.77635000e+01	Si
atom  5.59870000e-01 5.44236000e+00 2.72171000e+01	Si
atom  9.53131000e-01 7.09960000e+00 2.75892000e+01	N
atom  1.30545000e+00 1.28026000e+00 3.41501000e+01	N
atom  2.87603000e-01 4.56601000e+00 3.10279000e+01	N
atom  -2.06233000e-01 2.15738000e+00 3.44594000e+01	Si
atom  1.39554000e+00 2.12695000e+00 3.01895000e+01	N
atom  1.62694000e+00 4.47249000e+00 3.38609000e+01	Si
atom  2.49162000e-01 3.80562000e+00 3.47159000e+01	N
atom  8.68884000e-01 7.19032000e+00 3.03318000e+01	N
atom  7.73859000e-01 8.89206000e+00 3.30081000e+01	N
atom  9.02482000e-01 7.40513000e+00 3.39979000e+01	Si
atom  1.42024000e+00 5.83658000e+00 3.12526000e+01	Si
atom  1.32900000e+00 6.04474000e+00 3.30248000e+01	N
atom  -3.51321000e-01 9.93460000e+00 3.23445000e+01	Si
atom  7.55389000e-01 4.39598000e+00 3.63117000e+01	Si
atom  -1.42122000e-01 4.28840000e+00 3.91479000e+01	Si
atom  -2.05509000e-01 3.54384000e+00 3.75665000e+01	N
atom  -2.75042000e-01 1.25427000e+00 3.59877000e+01	N
atom  1.09562000e+00 4.12684000e-01 3.93736000e+01	Si
atom  -1.88781000e-01 9.89231000e+00 3.93592000e+01	N
atom  1.05669000e+00 5.84285000e+00 3.72133000e+01	N
atom  5.07090000e-01 9.68551000e+00 3.77771000e+01	Si
atom  1.54875000e+00 7.78859000e+00 3.92973000e+01	N
atom  -2.88915000e-01 8.22465000e+00 3.72858000e+01	N
atom  4.23929000e-01 6.98697000e+00 3.83340000e+01	Si
atom  5.37574000e-01 1.12336000e+01 3.89289000e+00	Si
atom  3.91391000e-01 1.39112000e+01 2.84445000e+00	N
atom  -4.05435000e-02 1.54806000e+01 2.40444000e+00	Si
atom  4.29945000e-01 1.92298000e+01 4.16949000e+00	Si
atom  1.19632000e+00 1.64043000e+01 3.42830000e+00	N
atom  2.94133000e-01 1.81290000e+01 8.90108000e-02	N
atom  -3.30410000e-01 1.94516000e+01 1.00383000e+00	Si
atom  -6.38471000e-01 1.53810000e+01 7.35649000e-01	N
atom  -1.48659000e-02 1.16849000e+01 8.18972000e+00	N
atom  6.03796000e-02 1.10424000e+01 6.63352000e+00	Si
atom  4.62928000e-01 1.22931000e+01 5.34339000e+00	N
atom  -1.58108000e-02 1.34683000e+01 8.45179000e+00	Si
atom  1.66486000e+00 1.37559000e+01 7.31367000e+00	N
atom  -2.04503000e-01 1.52728000e+01 5.71755000e+00	N
atom  1.46554000e+00 1.96891000e+01 9.83131000e+00	Si
atom  -2.57757000e-01 1.70161000e+01 9.27798000e+00	Si
atom  5.92139000e-01 1.65987000e+01 5.05723000e+00	Si
atom  -3.06126000e-01 1.80475000e+01 5.13713000e+00	N
atom  1.54045000e+00 1.55673000e+01 7.63301000e+00	Si
atom  4.87428000e-01 1.87257000e+01 8.81402000e+00	N
atom  3.78788000e-02 1.54033000e+01 8.50227000e+00	N
atom  9.83086000e-01 1.24377000e+01 1.29024000e+01	N
atom  1.15009000e+00 1.36782000e+01 1.16556000e+01	Si
atom  1.96531000e-01 1.07414000e+01 1.06140000e+01	N
atom  1.76275000e+00 1.13299000e+01 1.00179000e+01	Si
atom  -3.56728000e-01 1.45745000e+01 1.17261000e+01	N
atom  1.33929000e+00 1.31672000e+01 9.90066000e+00	N
atom  -4.89384000e-01 1.37163000e+01 1.49551000e+01	N
atom  3.30096000e-01 1.74289000e+01 1.45096000e+01	Si
atom  7.36800000e-01 1.70087000e+01 1.08352000e+01	N
atom  1.48756000e+00 1.94933000e+01 1.15256000e+01	N
atom  1.78430000e+00 1.70298000e+01 1.33852000e+01	N
atom  1.90741000e+00 1.78185000e+01 1.18969000e+01	Si
atom  7.60567000e-01 1.90519000e+01 1.49150000e+01	N
atom  5.86755000e-01 1.17834000e+01 1.98305000e+01	Si
atom  5.91641000e-01 1.37807000e+01 1.72576000e+01	N
atom  1.09923000e+00 1.09842000e+01 1.60168000e+01	N
atom  1.60090000e+00 1.23136000e+01 1.71435000e+01	Si
atom  7.05287000e-01 1.47229000e+01 1.57169000e+01	Si
atom  1.73855000e+00 1.13328000e+01 1.85978000e+01	N
atom  -5.50903000e-01 1.42861000e+01 1.84606000e+01	Si
atom  -4.77952000e-01 1.31783000e+01 1.97925000e+01	N
atom  1.49394000e-01 1.72699000e+01 1.73924000e+01	Si
atom  2.05830000e-01 1.63806000e+01 1.58315000e+01	N
atom  1.71454000e+00 1.76037000e+01 1.81020000e+01	N
atom  -4.44476000e-01 1.60871000e+01 1.86327000e+01	N
atom  1.66972000e+00 1.80390000e+01 1.98272000e+01	Si
atom  1.40710000e+00 1.16913000e+01 2.13755000e+01	N
atom  1.85324000e+00 1.44532000e+01 2.23701000e+01	N
atom  3.23344000e-02 1.80625000e+01 2.04654000e+01	N
atom  1.09865000e+00 1.59735000e+01 2.19378000e+01	Si
atom  8.97853000e-01 1.68540000e+01 2.34617000e+01	N
atom  5.74058000e-02 1.95703000e+01 2.33146000e+01	N
atom  -1.64846000e-01 1.59707000e+01 2.44641000e+01	Si
atom  4.00855000e-01 1.38270000e+01 2.64470000e+01	Si
atom  6.93907000e-01 1.42751000e+01 2.80865000e+01	N
atom  8.97223000e-01 1.15051000e+01 2.85766000e+01	N
atom  1.15262000e+00 1.24183000e+01 2.57802000e+01	N
atom  -3.81015000e-01 1.07666000e+01 2.95396000e+01	Si
atom  1.04320000e+00 1.51734000e+01 2.54753000e+01	N
atom  1.76480000e+00 1.30330000e+01 2.87123000e+01	Si
atom  3.94681000e-01 1.85030000e+01 2.70732000e+01	Si
atom  -5.04278000e-01 1.97562000e+01 2.62584000e+01	N
atom  -5.37803000e-02 1.56748000e+01 2.87375000e+01	Si
atom  -3.96481000e-01 1.70441000e+01 2.76662000e+01	N
atom  1.69419000e+00 1.81620000e+01 2.59630000e+01	N
atom  1.54263000e+00 1.94340000e+01 2.80401000e+01	N
atom  6.19525000e-01 1.38194000e+01 3.24715000e+01	N
atom  3.37319000e-01 1.08747000e+01 3.10441000e+01	N
atom  1.57115000e+00 1.45297000e+01 3.11997000e+01	Si
atom  1.68001000e+00 1.31039000e+01 3.36195000e+01	Si
atom  1.84504000e+00 1.15720000e+01 3.12897000e+01	Si
atom  3.59020000e-01 1.72128000e+01 3.13359000e+01	Si
atom  7.48392000e-01 1.57809000e+01 3.03547000e+01	N
atom  1.98690000e-01 1.74395000e+01 3.45637000e+01	Si
atom  -4.41828000e-01 1.72909000e+01 3.29829000e+01	N
atom  1.57472000e+00 1.84676000e+01 3.47562000e+01	N
atom  -3.97544000e-01 1.41633000e+01 3.72276000e+01	N
atom  9.41486000e-01 1.29539000e+01 3.52012000e+01	N
atom  3.16541000e-01 1.13761000e+01 3.52490000e+01	Si
atom  -2.97393000e-02 1.26326000e+01 3.79185000e+01	Si
atom  8.65208000e-01 1.44714000e+01 3.60453000e+01	Si
atom  1.58168000e+00 1.26891000e+01 3.85272000e+01	N
atom  -3.38854000e-01 1.11649000e+01 3.68914000e+01	N
atom  1.72939000e+00 1.03746000e+01 3.51938000e+01	N
atom  1.81029000e+00 1.78740000e+01 3.91084000e+01	Si
atom  -2.80235000e-01 1.81551000e+01 3.72313000e+01	Si
atom  1.52211000e+00 1.79434000e+01 3.73726000e+01	N
atom  6.23233000e-01 1.59137000e+01 3.51543000e+01	N
atom  8.19526000e-01 2.39484000e+01 1.35471000e+00	Si
atom  6.97870000e-01 2.45793000e+01 4.06186000e+00	Si
atom  3.31736000e-01 2.15107000e+01 2.79025000e+00	Si
atom  1.44209000e+00 2.28806000e+01 2.60769000e+00	N
atom  2.94619000e-01 2.08967000e+01 4.50838000e+00	N
atom  9.40288000e-01 2.06594000e+01 1.41165000e+00	N
atom  1.75271000e+00 2.42609000e+01 -6.43974000e-02	N
atom  -4.98657000e-01 2.34146000e+01 4.67661000e+00	N
atom  6.33421000e-01 2.52281000e+01 2.44661000e+00	N
atom  5.17768000e-01 2.73993000e+01 7.64164000e-01	N
atom  4.42209000e-01 2.69413000e+01 2.44301000e+00	Si
atom  1.76816000e+00 2.78939000e+01 3.15959000e+00	N
atom  1.86348000e+00 2.72709000e+01 4.79646000e+00	Si
atom  6.16175000e-01 2.26112000e+01 7.04001000e+00	N
atom  -2.10848000e-01 2.16104000e+01 8.22053000e+00	Si
atom  1.04372000e+00 2.13294000e+01 9.44416000e+00	N
atom  -3.99643000e-01 2.19187000e+01 5.77945000e+00	Si
atom  -2.54201000e-01 3.00308000e+01 6.92131000e+00	N
atom  9.43159000e-01 3.01713000e+01 5.68422000e+00	Si
atom  4.73879000e-01 2.61582000e+01 4.86379000e+00	N
atom  4.00946000e-01 3.02088000e+01 8.45991000e+00	Si
atom  1.08602000e+00 2.67380000e+01 9.27661000e+00	N
atom  1.64957000e+00 2.85575000e+01 5.90296000e+00	N
atom  -5.19220000e-01 2.74304000e+01 9.19243000e+00	Si
atom  -5.77001000e-01 2.91561000e+01 9.51024000e+00	N
atom  6.87510000e-01 2.15277000e+01 1.36750000e+01	N
atom  1.97600000e-02 2.30489000e+01 1.31372000e+01	Si
atom  1.93368000e-01 2.29315000e+01 1.14051000e+01	N
atom  1.02309000e+00 2.43151000e+01 1.37391000e+01	N
atom  1.59607000e+00 2.26219000e+01 1.04817000e+01	Si
atom  1.91559000e+00 2.08281000e+01 1.26140000e+01	Si
atom  9.21234000e-01 2.67884000e+01 1.21884000e+01	N
atom  1.41830000e+00 2.59692000e+01 1.37183000e+01	Si
atom  2.21446000e-01 2.68063000e+01 1.47558000e+01	N
atom  1.90582000e+00 2.08271000e+01 1.61931000e+01	N
atom  1.11797000e+00 2.14536000e+01 1.88359000e+01	N
atom  1.05212000e+00 2.34503000e+01 1.69392000e+01	N
atom  4.66608000e-01 2.08097000e+01 1.51863000e+01	Si
atom  -3.53310000e-01 2.45353000e+01 1.68520000e+01	Si
atom  -3.40376000e-01 2.15786000e+01 1.97899000e+01	Si
atom  1.84641000e+00 2.20252000e+01 1.74584000e+01	Si
atom  -1.81912000e-01 2.80510000e+01 1.75554000e+01	N
atom  7.93619000e-01 2.58668000e+01 1.72570000e+01	N
atom  3.28199000e-01 2.68611000e+01 1.87147000e+01	Si
atom  8.28249000e-01 2.73210000e+01 1.62653000e+01	Si
atom  5.71693000e-01 2.11992000e+01 2.29197000e+01	Si
atom  4.33230000e-01 2.07413000e+01 2.11518000e+01	N
atom  9.65145000e-01 2.61048000e+01 2.22664000e+01	N
atom  1.18771000e+00 2.81474000e+01 2.39470000e+01	N
atom  5.94485000e-01 2.98335000e+01 2.16907000e+01	N
atom  -3.60461000e-02 2.90423000e+01 2.31360000e+01	Si
atom  1.73245000e+00 2.89788000e+01 2.06930000e+01	Si
atom  -3.25385000e-01 2.99942000e+01 2.45384000e+01	N
atom  -4.47311000e-01 2.56219000e+01 2.32253000e+01	Si
atom  1.41704000e+00 2.57750000e+01 2.05968000e+01	Si
atom  1.47473000e+00 2.74358000e+01 1.98949000e+01	N
atom  -1.43325000e-01 2.48918000e+01 2.49369000e+01	N
atom  -4.39359000e-01 2.13096000e+01 2.85704000e+01	N
atom  -4.01679000e-01 2.26345000e+01 2.61620000e+01	N
atom  4.64787000e-01 2.41323000e+01 2.65001000e+01	Si
atom  1.21401000e+00 2.09212000e+01 2.88642000e+01	Si
atom  2.15781000e-01 2.51627000e+01 2.78500000e+01	N
atom  1.11756000e+00 2.93747000e+01 2.52506000e+01	Si
atom  1.56588000e+00 2.72322000e+01 2.90661000e+01	N
atom  6.88933000e-01 2.88412000e+01 2.68720000e+01	N
atom  1.55538000e+00 2.55160000e+01 2.89955000e+01	Si
atom  6.63225000e-01 2.19081000e+01 3.17182000e+01	Si
atom  -3.72465000e-02 2.15417000e+01 3.32564000e+01	N
atom  5.76196000e-01 2.25521000e+01 3.45268000e+01	Si
atom  1.21867000e+00 2.07444000e+01 3.06446000e+01	N
atom  1.09974000e+00 2.49332000e+01 3.05092000e+01	N
atom  -3.16001000e-01 2.40500000e+01 3.44970000e+01	N
atom  -5.82898000e-01 2.27314000e+01 3.08272000e+01	N
atom  -5.08475000e-01 2.44077000e+01 3.06663000e+01	Si
atom  1.57387000e+00 2.56576000e+01 3.32404000e+01	N
atom  2.94837000e-01 2.57012000e+01 3.44342000e+01	Si
atom  -2.33406000e-02 2.77804000e+01 3.12091000e+01	N
atom  1.59993000e+00 2.79487000e+01 3.06545000e+01	Si
atom  1.21485000e+00 2.99939000e+01 3.46086000e+01	Si
atom  4.82642000e-01 2.11171000e+01 3.72280000e+01	Si
atom  9.11262000e-01 2.20629000e+01 3.86791000e+01	N
atom  -1.74677000e-01 2.21695000e+01 3.60569000e+01	N
atom  -3.51700000e-01 2.43243000e+01 3.76499000e+01	N
atom  -3.31236000e-01 2.32105000e+01 3.88855000e+01	Si
atom  3.80664000e-01 2.97675000e+01 3.60723000e+01	N
atom  1.10309000e+00 2.62029000e+01 3.58816000e+01	N
atom  1.06847000e+00 2.88713000e+01 3.87679000e+01	N
atom  1.58410000e+00 2.95535000e+01 3.72942000e+01	Si
atom  -7.55874000e-02 2.60093000e+01 3.73235000e+01	Si
atom  1.51537000e+00 2.63237000e+01 3.81985000e+01	N
atom  1.70838000e+00 2.74116000e+01 3.94895000e+01	Si
atom  3.16211000e-01 3.10968000e+01 9.84860000e-01	Si
atom  3.81723000e-01 3.32926000e+01 4.15524000e+00	N
atom  1.07537000e+00 3.35646000e+01 2.55764000e+00	Si
atom  -3.24032000e-01 3.24377000e+01 1.99762000e+00	N
atom  1.32914000e+00 3.21196000e+01 -3.20070000e-03	N
atom  8.40322000e-01 3.52332000e+01 2.14803000e+00	N
atom  -6.26375000e-02 3.03406000e+01 4.22216000e+00	N
atom  9.41431000e-01 4.01686000e+01 1.03460000e+00	N
atom  1.13465000e+00 3.78225000e+01 4.05232000e+00	N
atom  1.36513000e+00 3.61013000e+01 6.02941000e-01	Si
atom  1.49048000e+00 3.97206000e+01 4.16958000e+00	Si
atom  1.67126000e+00 3.65498000e+01 3.03074000e+00	Si
atom  5.22606000e-01 3.32788000e+01 7.00375000e+00	N
atom  -1.40034000e-01 3.41315000e+01 5.57102000e+00	Si
atom  2.34168000e-01 3.17597000e+01 9.14284000e+00	N
atom  2.20490000e-01 3.71731000e+01 5.33402000e+00	Si
atom  7.71688000e-01 3.78597000e+01 6.85934000e+00	N
atom  1.66966000e+00 3.59739000e+01 9.09623000e+00	N
atom  7.83400000e-01 3.55409000e+01 5.49194000e+00	N
atom  7.91957000e-01 3.95406000e+01 7.15911000e+00	Si
atom  1.61678000e+00 3.98426000e+01 8.65410000e+00	N
atom  8.53761000e-01 3.37794000e+01 1.10590000e+01	N
atom  6.99505000e-01 3.22373000e+01 1.29977000e+01	N
atom  4.57263000e-01 3.21250000e+01 1.08922000e+01	Si
atom  1.46887000e+00 3.38557000e+01 1.27689000e+01	Si
atom  9.26203000e-01 3.43469000e+01 1.43894000e+01	N
atom  4.53235000e-01 3.51515000e+01 1.00519000e+01	Si
atom  1.79473000e+00 3.10724000e+01 1.10560000e+01	N
atom  9.31471000e-01 3.75861000e+01 1.37141000e+01	N
atom  1.45060000e-01 3.64949000e+01 1.11365000e+01	N
atom  1.43756000e+00 3.67949000e+01 1.23512000e+01	Si
atom  5.28790000e-01 3.99184000e+01 1.45022000e+01	N
atom  5.40138000e-01 4.01441000e+01 1.00165000e+01	Si
atom  1.46120000e+00 4.01409000e+01 1.14652000e+01	N
atom  1.94778000e+00 3.87943000e+01 1.45221000e+01	Si
atom  9.62264000e-01 3.24506000e+01 1.87327000e+01	N
atom  6.75957000e-01 3.05133000e+01 1.65973000e+01	N
atom  6.94227000e-01 3.40425000e+01 1.94405000e+01	Si
atom  7.10733000e-01 3.22291000e+01 1.69942000e+01	Si
atom  -7.87453000e-02 3.74152000e+01 1.75692000e+01	N
atom  -4.30923000e-01 3.90898000e+01 1.96779000e+01	N
atom  1.45823000e+00 3.56107000e+01 1.67187000e+01	N
atom  -2.92375000e-01 3.57632000e+01 1.70538000e+01	Si
atom  1.60032000e+00 3.73108000e+01 1.72818000e+01	Si
atom  1.97084000e-01 3.40652000e+01 2.10481000e+01	N
atom  5.07071000e-01 3.24373000e+01 2.18281000e+01	Si
atom  7.62724000e-02 3.28188000e+01 2.34840000e+01	N
atom  4.31088000e-01 3.43002000e+01 2.44722000e+01	Si
atom  1.19278000e+00 3.54111000e+01 2.32769000e+01	N
atom  2.67343000e-01 3.56309000e+01 2.17994000e+01	Si
atom  1.02181000e+00 3.68322000e+01 2.09571000e+01	N
atom  5.63658000e-01 3.87913000e+01 2.38337000e+01	Si
atom  4.55019000e-01 3.85123000e+01 2.10506000e+01	Si
atom  -4.89314000e-01 3.89394000e+01 2.24613000e+01	N
atom  1.05501000e+00 3.20581000e+01 2.47873000e+01	Si
atom  -2.16727000e-01 3.06662000e+01 2.87511000e+01	N
atom  4.77540000e-01 3.21240000e+01 2.78408000e+01	Si
atom  1.43666000e+00 3.44191000e+01 2.94434000e+01	Si
atom  4.03308000e-02 3.35330000e+01 2.87669000e+01	N
atom  3.96966000e-02 3.18009000e+01 2.62312000e+01	N
atom  1.85117000e+00 3.34960000e+01 2.51911000e+01	N
atom  -8.64174000e-02 3.68431000e+01 2.76204000e+01	N
atom  1.33620000e+00 3.95601000e+01 2.97564000e+01	N
atom  1.67143000e+00 3.67175000e+01 2.74115000e+01	Si
atom  -2.72038000e-01 3.66544000e+01 2.58740000e+01	Si
atom  1.51336000e+00 3.65276000e+01 2.57111000e+01	N
atom  3.50979000e-01 3.15177000e+01 3.10522000e+01	N
atom  4.22171000e-01 3.24069000e+01 3.25443000e+01	Si
atom  1.35585000e+00 3.38500000e+01 3.26023000e+01	N
atom  1.14507000e+00 3.15064000e+01 3.37762000e+01	N
atom  4.97929000e-01 3.50299000e+01 3.36583000e+01	Si
atom  1.24557000e+00 3.07729000e+01 2.97847000e+01	Si
atom  8.51940000e-01 3.55912000e+01 3.05422000e+01	N
atom  1.05519000e-01 3.89543000e+01 3.07337000e+01	Si
atom  9.89462000e-01 3.87035000e+01 3.21574000e+01	N
atom  1.64743000e+00 3.62307000e+01 3.41728000e+01	N
atom  1.12692000e-01 3.41503000e+01 3.51087000e+01	N
atom  1.36333000e-01 3.47293000e+01 3.67770000e+01	Si
atom  1.36187000e+00 3.38516000e+01 3.77314000e+01	N
atom  1.00768000e+00 3.23162000e+01 3.83319000e+01	Si
atom  2.11762000e-01 3.75145000e+01 3.83215000e+01	Si
atom  -8.62933000e-02 3.64391000e+01 3.96576000e+01	N
atom  6.38091000e-01 3.63750000e+01 3.69094000e+01	N
atom  1.04236000e+00 4.02566000e+01 3.54990000e+01	Si
atom  1.26111000e+00 3.88610000e+01 3.85249000e+01	N
atom  3.00205000e-01 3.86296000e+01 3.52977000e+01	N
atom  1.31145000e+00 3.72307000e+01 3.55857000e+01	Si
atom  2.48613000e+00 3.66444000e+00 3.25008000e+00	Si
atom  3.44686000e+00 3.27744000e+00 1.80859000e+00	N
atom  2.95479000e+00 4.15720000e+00 3.99698000e-01	Si
atom  2.79947000e+00 2.48184000e+00 4.61535000e+00	N
atom  3.21467000e+00 5.24783000e+00 3.46321000e+00	N
atom  3.17057000e+00 5.96146000e+00 6.71324000e-01	N
atom  2.55330000e+00 9.02939000e+00 3.09439000e+00	N
atom  3.84808000e+00 8.42751000e+00 3.99953000e+00	Si
atom  2.17281000e+00 6.14477000e+00 4.51216000e+00	Si
atom  2.27821000e+00 9.98169000e+00 5.64553000e-01	N
atom  4.01813000e+00 6.05860000e+00 2.18225000e+00	Si
atom  2.44223000e+00 2.14998000e+00 7.59207000e+00	N
atom  4.17676000e+00 2.01035000e+00 7.87547000e+00	Si
atom  1.84203000e+00 1.88397000e+00 5.95083000e+00	Si
atom  3.27557000e+00 7.33860000e+00 6.91211000e+00	Si
atom  3.87370000e+00 8.91839000e+00 7.18563000e+00	N
atom  3.13854000e+00 7.39659000e+00 5.17262000e+00	N
atom  2.70156000e+00 1.02218000e+01 7.28322000e+00	Si
atom  3.26199000e+00 1.11479000e+00 1.40586000e+01	Si
atom  3.42944000e+00 4.57980000e+00 1.24686000e+01	N
atom  2.30767000e+00 3.78164000e+00 1.35378000e+01	Si
atom  2.62077000e+00 2.68865000e+00 1.04507000e+01	N
atom  2.27303000e+00 2.12653000e+00 1.30775000e+01	N
atom  3.95178000e+00 3.47296000e+00 1.11851000e+01	Si
atom  2.72789000e+00 7.23347000e+00 1.27025000e+01	N
atom  3.06681000e+00 7.93245000e+00 1.11442000e+01	Si
atom  3.17034000e+00 6.66473000e+00 9.97157000e+00	N
atom  4.09298000e+00 6.16707000e+00 1.29001000e+01	Si
atom  3.16884000e+00 3.90076000e+00 1.51048000e+01	N
atom  2.57860000e+00 1.16140000e+00 1.56925000e+01	N
atom  2.59888000e+00 2.84498000e+00 1.64821000e+01	Si
atom  1.98228000e+00 3.93067000e+00 1.79420000e+01	N
atom  4.17340000e+00 2.54493000e+00 1.72184000e+01	N
atom  4.12762000e+00 4.41138000e+00 1.97851000e+01	N
atom  2.88593000e+00 5.15536000e+00 1.88023000e+01	Si
atom  3.14026000e+00 6.22893000e+00 1.74397000e+01	N
atom  2.37346000e+00 9.82820000e+00 1.56444000e+01	Si
atom  3.57395000e+00 8.74248000e+00 1.92517000e+01	N
atom  2.10872000e+00 7.89292000e+00 1.95451000e+01	Si
atom  1.88693000e+00 8.18573000e+00 1.54079000e+01	N
atom  3.67619000e+00 1.50971000e+00 2.05540000e+01	N
atom  3.42271000e+00 3.20307000e+00 2.09020000e+01	Si
atom  3.57248000e+00 4.89169000e+00 2.33451000e+01	Si
atom  2.46802000e+00 4.80834000e-01 1.99760000e+01	Si
atom  3.90280000e+00 3.44941000e+00 2.25086000e+01	N
atom  3.61435000e+00 9.98022000e+00 2.19745000e+01	N
atom  2.35596000e+00 6.32466000e+00 2.01234000e+01	N
atom  1.86836000e+00 1.00498000e+01 2.19255000e+01	Si
atom  2.00041000e+00 5.53296000e+00 2.32106000e+01	N
atom  3.97590000e+00 4.37493000e+00 2.50161000e+01	N
atom  3.86865000e+00 4.24078000e+00 2.77252000e+01	N
atom  2.53893000e+00 2.39671000e+00 2.61045000e+01	N
atom  2.85449000e+00 4.10101000e+00 2.63191000e+01	Si
atom  3.66497000e+00 4.75170000e-01 2.94004000e+01	N
atom  3.03268000e+00 5.04087000e+00 2.89592000e+01	Si
atom  4.03757000e+00 1.47713000e+00 2.60581000e+01	Si
atom  2.91477000e+00 7.73674000e+00 2.50638000e+01	N
atom  2.00161000e+00 7.64131000e+00 2.89500000e+01	Si
atom  3.87023000e+00 1.00530000e+01 2.94174000e+01	Si
atom  2.48366000e+00 9.27385000e+00 2.85718000e+01	N
atom  2.22931000e+00 9.44056000e+00 2.50219000e+01	Si
atom  3.52677000e+00 6.79042000e+00 2.87911000e+01	N
atom  2.79690000e+00 1.71972000e+00 3.34352000e+01	Si
atom  3.03534000e+00 1.58300000e+00 3.06018000e+01	Si
atom  2.60163000e+00 3.42161000e+00 3.29499000e+01	N
atom  3.00903000e+00 6.55688000e-01 3.20762000e+01	N
atom  3.77354000e+00 4.11576000e+00 3.18390000e+01	Si
atom  4.08777000e+00 1.51552000e+00 3.45715000e+01	N
atom  2.91664000e+00 5.18140000e+00 3.07358000e+01	N
atom  4.12980000e+00 2.87120000e+00 3.06997000e+01	N
atom  3.53150000e+00 8.97802000e+00 3.32335000e+01	N
atom  3.74594000e+00 8.24439000e+00 3.48148000e+01	Si
atom  4.38720000e+00 9.44358000e+00 3.17734000e+01	Si
atom  2.09143000e+00 9.94572000e+00 3.35389000e+01	Si
atom  2.67455000e+00 1.19295000e+00 3.92064000e+01	N
atom  2.34199000e+00 4.67141000e+00 3.54879000e+01	N
atom  3.97992000e+00 9.72613000e-01 3.62085000e+01	Si
atom  4.21896000e+00 3.66704000e+00 3.93126000e+01	N
atom  4.27180000e+00 1.88034000e+00 3.90233000e+01	Si
atom  2.38901000e+00 3.74895000e-01 3.65812000e+01	N
atom  2.59519000e+00 6.17169000e+00 3.63388000e+01	Si
atom  3.24907000e+00 9.90519000e+00 3.91738000e+01	Si
atom  2.22616000e+00 9.87694000e+00 3.77919000e+01	N
atom  3.25137000e+00 7.01521000e+00 3.93314000e+01	Si
atom  3.67133000e+00 6.15489000e+00 3.77239000e+01	N
atom  2.17259000e+00 7.51597000e+00 3.52489000e+01	N
atom  4.20527000e+00 9.57244000e+00 3.58124000e+01	N
atom  3.22848000e+00 1.44371000e+01 1.97775000e+00	N
atom  2.11579000e+00 1.35596000e+01 3.10416000e+00	Si
atom  2.77022000e+00 1.04962000e+01 2.18327000e+00	Si
atom  1.97932000e+00 1.18255000e+01 3.13342000e+00	N
atom  2.73915000e+00 1.40652000e+01 4.73843000e+00	N
atom  3.32820000e+00 1.57921000e+01 7.72503000e-01	Si
atom  3.25431000e+00 1.72255000e+01 1.74539000e+00	N
atom  2.63656000e+00 1.73249000e+01 3.31845000e+00	Si
atom  3.98457000e+00 1.86237000e+01 1.10128000e+00	Si
atom  2.14024000e+00 1.87854000e+01 4.20961000e+00	N
atom  3.98310000e+00 1.70218000e+01 4.42004000e+00	N
atom  3.67044000e+00 2.00283000e+01 2.05326000e+00	N
atom  2.85411000e+00 1.90487000e+01 -1.53987000e-01	N
atom  2.94257000e+00 1.09856000e+01 8.78206000e+00	N
atom  2.52946000e+00 1.36528000e+01 8.77253000e+00	Si
atom  3.07597000e+00 1.15471000e+01 6.25844000e+00	N
atom  2.10606000e+00 1.28747000e+01 5.79301000e+00	Si
atom  3.16764000e+00 1.98006000e+01 9.45570000e+00	N
atom  2.68631000e+00 1.53634000e+01 8.94001000e+00	N
atom  3.65452000e+00 1.87239000e+01 5.03495000e+00	Si
atom  3.76103000e+00 1.94035000e+01 6.60151000e+00	N
atom  3.38105000e+00 1.56452000e+01 5.43592000e+00	Si
atom  1.98810000e+00 1.64392000e+01 6.23083000e+00	N
atom  2.38669000e+00 1.48572000e+01 1.18569000e+01	N
atom  2.85844000e+00 1.10903000e+01 1.13515000e+01	N
atom  2.96202000e+00 1.05247000e+01 1.41897000e+01	N
atom  1.93550000e+00 1.09820000e+01 1.28286000e+01	Si
atom  2.71150000e+00 1.55649000e+01 1.34266000e+01	Si
atom  3.22529000e+00 1.58275000e+01 1.05788000e+01	Si
atom  3.36661000e+00 1.75126000e+01 1.09741000e+01	N
atom  3.06170000e+00 2.01133000e+01 1.37094000e+01	N
atom  2.28577000e+00 1.48271000e+01 1.49483000e+01	N
atom  3.43203000e+00 1.45814000e+01 1.61891000e+01	Si
atom  3.66955000e+00 1.48606000e+01 1.89853000e+01	Si
atom  3.12815000e+00 1.29104000e+01 1.67336000e+01	N
atom  3.26092000e+00 1.04049000e+01 1.86703000e+01	Si
atom  3.56313000e+00 1.02729000e+01 1.69079000e+01	N
atom  2.75762000e+00 1.37906000e+01 1.99479000e+01	N
atom  2.45138000e+00 1.95020000e+01 1.52275000e+01	Si
atom  3.31569000e+00 1.74168000e+01 1.74255000e+01	Si
atom  3.50886000e+00 1.83995000e+01 1.60153000e+01	N
atom  3.37601000e+00 1.56817000e+01 1.75175000e+01	N
atom  2.46310000e+00 1.31112000e+01 2.14795000e+01	Si
atom  3.95142000e+00 1.26804000e+01 2.23481000e+01	N
atom  3.44546000e+00 1.34758000e+01 2.50394000e+01	N
atom  3.39929000e+00 1.87684000e+01 2.39767000e+01	N
atom  2.30962000e+00 1.69942000e+01 2.11368000e+01	N
atom  2.12616000e+00 1.75597000e+01 2.44641000e+01	Si
atom  3.38825000e+00 1.64194000e+01 2.45661000e+01	N
atom  4.09585000e+00 1.70703000e+01 2.13770000e+01	Si
atom  2.60047000e+00 1.94095000e+01 1.99208000e+01	N
atom  3.03334000e+00 1.28403000e+01 2.75749000e+01	N
atom  3.43705000e+00 1.05738000e+01 2.56406000e+01	N
atom  2.81368000e+00 1.21643000e+01 2.59458000e+01	Si
atom  2.79950000e+00 1.50474000e+01 2.54535000e+01	Si
atom  3.74806000e+00 1.53750000e+01 2.68897000e+01	N
atom  2.85843000e+00 1.91844000e+01 2.68875000e+01	Si
atom  4.05806000e+00 1.82637000e+01 2.77768000e+01	N
atom  3.23169000e+00 1.38958000e+01 3.39720000e+01	N
atom  3.30782000e+00 1.06090000e+01 3.09933000e+01	N
atom  2.29053000e+00 1.30626000e+01 3.03909000e+01	N
atom  2.03086000e+00 1.16097000e+01 3.29929000e+01	N
atom  2.94893000e+00 1.52782000e+01 3.17780000e+01	N
atom  1.92725000e+00 1.80810000e+01 3.17029000e+01	N
atom  2.45287000e+00 1.96575000e+01 3.11578000e+01	Si
atom  2.34557000e+00 1.86938000e+01 3.33120000e+01	Si
atom  3.31786000e+00 1.69737000e+01 3.18188000e+01	Si
atom  3.72420000e+00 1.76571000e+01 3.33802000e+01	N
atom  3.76757000e+00 2.00398000e+01 3.01600000e+01	N
atom  2.76454000e+00 2.02453000e+01 3.27599000e+01	N
atom  3.98176000e+00 1.41601000e+01 3.88549000e+01	N
atom  3.29190000e+00 1.26900000e+01 3.82460000e+01	Si
atom  3.64985000e+00 1.37926000e+01 3.56882000e+01	Si
atom  2.52737000e+00 1.46940000e+01 3.66458000e+01	N
atom  3.49342000e+00 1.22509000e+01 3.65939000e+01	N
atom  2.92042000e+00 1.05857000e+01 3.63778000e+01	Si
atom  4.11805000e+00 1.14799000e+01 3.92718000e+01	N
atom  2.36415000e+00 1.62632000e+01 3.94141000e+01	N
atom  2.43601000e+00 1.88781000e+01 3.61944000e+01	Si
atom  4.16630000e+00 1.87498000e+01 3.59613000e+01	N
atom  3.09133000e+00 1.54785000e+01 3.80631000e+01	Si
atom  3.00173000e+00 2.34287000e+01 3.01797000e+00	Si
atom  3.68291000e+00 2.46361000e+01 1.91578000e+00	N
atom  2.36992000e+00 2.42165000e+01 4.50089000e+00	N
atom  3.20188000e+00 2.51539000e+01 3.06799000e-01	Si
atom  2.57729000e+00 2.04801000e+01 7.85675000e-01	Si
atom  3.29106000e+00 2.19117000e+01 1.46533000e-01	N
atom  2.67980000e+00 2.92502000e+01 2.58908000e+00	Si
atom  3.56142000e+00 2.99947000e+01 4.04223000e+00	N
atom  3.18012000e+00 2.68003000e+01 1.82140000e-01	N
atom  2.08789000e+00 2.32496000e+01 7.67874000e+00	Si
atom  3.41411000e+00 2.21101000e+01 7.27544000e+00	N
atom  2.66454000e+00 2.47990000e+01 7.28218000e+00	N
atom  3.35978000e+00 2.50344000e+01 5.75945000e+00	Si
atom  3.68319000e+00 2.04821000e+01 7.95806000e+00	Si
atom  1.92348000e+00 2.38161000e+01 9.36145000e+00	N
atom  2.42300000e+00 2.56643000e+01 8.83621000e+00	Si
atom  3.36666000e+00 2.71109000e+01 8.20504000e+00	N
atom  3.35898000e+00 2.66455000e+01 5.33209000e+00	N
atom  2.58894000e+00 2.85045000e+01 7.37135000e+00	Si
atom  1.99628000e+00 2.94413000e+01 8.60485000e+00	N
atom  2.71821000e+00 2.20650000e+01 1.16647000e+01	N
atom  3.04756000e+00 2.60722000e+01 1.43045000e+01	N
atom  3.19587000e+00 2.92200000e+01 1.28027000e+01	Si
atom  2.71020000e+00 2.85976000e+01 1.12411000e+01	N
atom  3.15454000e+00 2.59232000e+01 1.05350000e+01	N
atom  2.72468000e+00 2.99403000e+01 1.01439000e+01	Si
atom  2.12469000e+00 3.00598000e+01 1.39125000e+01	N
atom  1.93993000e+00 2.71416000e+01 1.08101000e+01	Si
atom  3.41941000e+00 2.27291000e+01 1.78500000e+01	N
atom  2.15027000e+00 2.47026000e+01 1.76312000e+01	Si