lattice_vector  3.99383606e+01 0.00000000e+00 0.00000000e+00
lattice_vector  2.44551928e-15 3.99383606e+01 0.00000000e+00
lattice_vector  2.44551928e-15 2.44551928e-15 3.99383606e+01
atom  8.56787000e-01 2.93498000e+00 8.56960000e-01	Si
atom  5.16497000e-01 3.83302000e+00 3.28690000e+00	Si
atom  -4.91631000e-02 4.17199000e+00 1.59589000e+00	N
atom  -1.66339000e-01 2.32570000e+00 3.79558000e+00	N
atom  1.90138000e+00 4.91497000e+00 3.61389000e+00	N
atom  -3.03105000e-01 1.57390000e+00 1.08985000e+00	N
atom  2.02838000e+00 2.80292000e+00 2.12719000e+00	N
atom  7.37846000e-01 8.71247000e+00 4.36475000e+00	Si
atom  9.10667000e-01 6.06768000e+00 4.54844000e+00	Si
atom  -5.62279000e-02 9.22800000e+00 2.82488000e+00	N
atom  2.06508000e+00 7.52828000e+00 4.13356000e+00	N
atom  1.42346000e+00 2.56456000e+00 6.14477000e+00	N
atom  -1.88228000e-02 1.98074000e+00 5.59682000e+00	Si
atom  6.00245000e-01 5.80036000e+00 8.93735000e+00	N
atom  1.40730000e-01 6.68141000e+00 6.79419000e+00	Si
atom  1.65456000e+00 5.98366000e+00 6.20486000e+00	N
atom  1.78004000e+00 9.50569000e+00 6.94653000e+00	Si
atom  1.00403000e+00 9.99866000e+00 5.42767000e+00	N
atom  1.28128000e+00 7.38790000e+00 9.26663000e+00	Si
atom  7.12846000e-01 8.14586000e+00 7.64721000e+00	N
atom  1.52067000e+00 3.54376000e+00 1.34630000e+01	Si
atom  -1.11509000e-01 3.19942000e+00 1.37034000e+01	N
atom  1.17766000e+00 5.06753000e+00 1.05403000e+01	Si
atom  1.43809000e+00 5.02016000e-01 1.22811000e+01	Si
atom  1.62683000e+00 5.04369000e+00 1.26459000e+01	N
atom  9.71202000e-02 3.77614000e-01 1.33945000e+01	N
atom  -1.50406000e-01 8.27934000e+00 1.00202000e+01	N
atom  9.91866000e-02 7.57972000e+00 1.27877000e+01	N
atom  1.63370000e+00 6.74535000e+00 1.26931000e+01	Si
atom  7.39914000e-01 2.76839000e+00 1.88300000e+01	Si
atom  5.86258000e-01 1.35736000e+00 1.77809000e+01	N
atom  3.07199000e-01 4.96758000e+00 1.59589000e+01	N
atom  1.80892000e+00 4.78720000e+00 1.68619000e+01	Si
atom  1.06050000e+00 7.63330000e+00 1.86623000e+01	Si
atom  1.36114000e+00 6.17003000e+00 1.78799000e+01	N
atom  1.46298000e-01 7.60225000e+00 1.56542000e+01	N
atom  1.06442000e+00 9.00542000e+00 1.63071000e+01	Si
atom  -5.58582000e-02 1.01848000e+01 1.67527000e+01	N
atom  -2.81762000e-01 6.32901000e+00 1.69793000e+01	Si
atom  -6.24718000e-01 7.72908000e+00 1.80627000e+01	N
atom  8.75314000e-01 3.65004000e+00 2.29451000e+01	N
atom  1.22356000e+00 1.01588000e+00 2.29748000e+01	N
atom  1.46650000e+00 2.32494000e+00 2.40374000e+01	Si
atom  1.43447000e+00 4.90971000e+00 2.18527000e+01	Si
atom  3.18084000e-01 4.83708000e+00 2.05776000e+01	N
atom  1.58817000e+00 2.16606000e+00 2.03437000e+01	N
atom  1.98237000e+00 8.43668000e-01 2.14570000e+01	Si
atom  5.90747000e-01 9.21730000e+00 2.26559000e+01	N
atom  1.14317000e+00 6.45379000e+00 2.26091000e+01	N
atom  5.63877000e-01 7.76643000e+00 2.17238000e+01	Si
atom  1.63983000e+00 7.72847000e+00 2.03125000e+01	N
atom  5.77862000e-01 2.10986000e+00 2.54258000e+01	N
atom  1.38429000e+00 1.47411000e+00 2.67893000e+01	Si
atom  1.21987000e+00 2.72305000e+00 2.80128000e+01	N
atom  9.72196000e-01 2.11192000e+00 2.95943000e+01	Si
atom  1.62036000e+00 5.99956000e+00 2.67742000e+01	Si
atom  7.71033000e-01 6.63261000e+00 2.53673000e+01	N
atom  6.21680000e-01 5.74217000e+00 2.81579000e+01	N
atom  6.36064000e-01 9.17086000e+00 2.83424000e+01	N
atom  1.25791000e+00 5.49285000e+00 2.97655000e+01	Si
atom  6.82675000e-01 2.60001000e+00 3.12407000e+01	N
atom  2.57721000e-01 1.86395000e+00 3.41384000e+01	N
atom  1.28995000e+00 4.53849000e+00 3.39261000e+01	Si
atom  1.33369000e+00 1.96944000e+00 3.26730000e+01	Si
atom  -1.74860000e-01 4.47454000e+00 3.31587000e+01	N
atom  -1.81666000e-01 5.31614000e+00 3.07256000e+01	N
atom  5.22115000e-02 8.38890000e+00 3.37364000e+01	N
atom  2.21550000e-01 9.09116000e+00 3.21144000e+01	Si
atom  7.88738000e-01 7.21555000e+00 3.47541000e+01	Si
atom  1.81210000e+00 7.05971000e+00 3.01987000e+01	N
atom  1.88017000e+00 6.17263000e+00 3.39878000e+01	N
atom  1.29305000e+00 1.68375000e+00 3.67436000e+01	N
atom  1.36386000e+00 4.02487000e+00 3.55727000e+01	N
atom  1.62800000e+00 3.32701000e+00 3.93770000e+01	N
atom  1.63246000e+00 2.25584000e+00 3.51376000e+01	Si
atom  1.25953000e+00 7.25906000e+00 3.78039000e+01	Si
atom  1.61397000e+00 8.60481000e+00 3.88074000e+01	N
atom  3.35644000e-01 9.72244000e+00 3.93463000e+01	Si
atom  1.59392000e+00 7.72822000e+00 3.61920000e+01	N
atom  1.30381000e+00 1.15704000e+01 3.26912000e+00	N
atom  3.17972000e-01 1.08046000e+01 2.12017000e+00	Si
atom  1.20087000e+00 1.06174000e+01 6.58040000e-01	N
atom  5.80259000e-01 1.15404000e+01 4.87613000e+00	Si
atom  -4.31914000e-01 1.73623000e+01 8.73076000e-01	Si
atom  1.25343000e+00 1.65388000e+01 3.45697000e+00	Si
atom  9.81789000e-01 1.68255000e+01 1.77952000e+00	N
atom  5.38323000e-01 2.00014000e+01 1.06779000e+00	Si
atom  -2.44355000e-01 1.65883000e+01 4.23127000e+00	N
atom  9.64109000e-03 1.99011000e+01 2.78481000e+00	N
atom  -3.63934000e-01 1.89135000e+01 5.83706000e-02	N
atom  2.99584000e-01 1.15790000e+01 8.75799000e+00	Si
atom  1.15849000e+00 1.31090000e+01 5.57496000e+00	N
atom  1.17446000e-01 1.40087000e+01 6.65932000e+00	Si
atom  -2.45103000e-01 1.31647000e+01 8.17281000e+00	N
atom  1.65751000e+00 1.07560000e+01 8.11068000e+00	N
atom  -1.05154000e-01 1.69638000e+01 5.94338000e+00	Si
atom  7.94784000e-01 1.57175000e+01 6.82522000e+00	N
atom  9.63690000e-01 1.96554000e+01 7.77775000e+00	Si
atom  1.90596000e+00 1.69154000e+01 7.37521000e+00	Si
atom  9.03004000e-01 1.83087000e+01 6.52850000e+00	N
atom  5.12177000e-01 1.14809000e+01 1.04754000e+01	N
atom  1.97685000e-01 1.32643000e+01 1.34852000e+01	Si
atom  -1.27122000e-01 1.48392000e+01 1.40887000e+01	N
atom  1.61142000e+00 1.34364000e+01 1.23688000e+01	N
atom  7.20199000e-01 1.20556000e+01 1.47474000e+01	N
atom  1.86017000e+00 1.19380000e+01 1.15029000e+01	Si
atom  1.23654000e+00 1.60991000e+01 1.21409000e+01	N
atom  1.12490000e+00 1.70099000e+01 1.07112000e+01	Si
atom  1.63633000e+00 1.95886000e+01 1.22474000e+01	Si
atom  5.61866000e-02 2.00053000e+01 1.16846000e+01	N
atom  1.72200000e+00 1.94596000e+01 1.40382000e+01	N
atom  -3.54240000e-01 1.60466000e+01 1.28553000e+01	Si
atom  1.05149000e-01 1.18734000e+01 1.63822000e+01	Si
atom  1.44520000e-01 1.24949000e+01 1.93326000e+01	N
atom  1.58479000e+00 1.25795000e+01 1.70870000e+01	N
atom  1.76243000e+00 1.27131000e+01 1.88488000e+01	Si
atom  3.59536000e-01 1.53779000e+01 1.70718000e+01	N
atom  4.76538000e-01 1.67861000e+01 1.90903000e+01	N
atom  1.76801000e+00 1.91271000e+01 1.68538000e+01	N
atom  7.76886000e-01 1.54341000e+01 1.54345000e+01	Si
atom  -3.44596000e-01 1.99640000e+01 1.86454000e+01	N
atom  5.17632000e-01 1.71323000e+01 1.51859000e+01	N
atom  1.67910000e+00 1.58116000e+01 1.82066000e+01	Si
atom  9.80445000e-01 1.24234000e+01 2.28783000e+01	Si
atom  1.78091000e-01 1.30929000e+01 2.42950000e+01	N
atom  1.57249000e+00 1.39217000e+01 2.21103000e+01	N
atom  -1.25113000e-01 1.16486000e+01 2.18212000e+01	N
atom  9.57468000e-01 1.53061000e+01 2.29255000e+01	Si
atom  1.12143000e+00 1.82095000e+01 2.37179000e+01	N
atom  4.94993000e-01 1.87348000e+01 2.10999000e+01	N
atom  1.21339000e-01 1.71180000e+01 2.07007000e+01	Si
atom  1.46234000e+00 1.63939000e+01 2.16717000e+01	N
atom  7.78439000e-02 2.01769000e+01 2.03204000e+01	Si
atom  1.76247000e+00 1.80211000e+01 2.21361000e+01	Si
atom  -3.78174000e-01 1.90319000e+01 2.41183000e+01	Si
atom  7.23135000e-01 1.11009000e+01 2.84674000e+01	Si
atom  2.00144000e-03 1.10636000e+01 2.68795000e+01	N
atom  -4.65929000e-01 1.18712000e+01 2.53791000e+01	Si
atom  1.21961000e+00 1.53473000e+01 2.60171000e+01	Si
atom  -4.49351000e-01 1.10913000e+01 2.98048000e+01	N
atom  1.23598000e+00 1.73645000e+01 2.97978000e+01	N
atom  8.17280000e-02 1.88314000e+01 2.59210000e+01	N
atom  1.72413000e+00 1.68138000e+01 2.67539000e+01	N
atom  1.58687000e+00 1.80333000e+01 2.54055000e+01	Si
atom  7.96164000e-02 1.12414000e+01 3.40062000e+01	Si
atom  -5.74387000e-02 1.19141000e+01 3.13104000e+01	Si
atom  1.53559000e+00 1.20471000e+01 3.16142000e+01	N
atom  1.10781000e+00 1.45294000e+01 3.03902000e+01	N
atom  1.75303000e+00 1.09950000e+01 3.39965000e+01	N
atom  -4.15586000e-01 1.28615000e+01 3.37369000e+01	N
atom  1.92328000e+00 1.46687000e+01 3.47565000e+01	N
atom  3.20386000e-01 1.81213000e+01 3.41156000e+01	Si
atom  1.07071000e+00 1.86725000e+01 3.25465000e+01	N
atom  1.64999000e-01 2.01800000e+01 3.23431000e+01	Si
atom  -1.96990000e-01 1.37441000e+01 3.82033000e+01	N
atom  5.00759000e-01 1.37573000e+01 3.49231000e+01	Si
atom  -1.23188000e-02 1.46444000e+01 3.96685000e+01	Si
atom  7.32733000e-01 1.23019000e+01 3.77941000e+01	Si
atom  9.81009000e-01 1.24205000e+01 3.60418000e+01	N
atom  -1.70817000e-01 1.08411000e+01 3.81584000e+01	N
atom  1.71234000e+00 1.48197000e+01 3.99865000e+01	N
atom  -2.31024000e-01 1.96116000e+01 3.49350000e+01	N
atom  1.22933000e+00 1.88228000e+01 3.78897000e+01	N
atom  1.39004000e+00 1.73426000e+01 3.52583000e+01	N
atom  6.54839000e-01 2.28781000e+01 3.26308000e+00	N
atom  8.91092000e-01 2.29097000e+01 2.51007000e-01	Si
atom  1.88055000e-01 2.42914000e+01 1.07435000e+00	N
atom  8.25337000e-01 2.12538000e+01 3.66178000e+00	Si
atom  -8.47556000e-02 2.15545000e+01 6.78368000e-01	N
atom  1.25930000e+00 2.90754000e+01 2.00934000e+00	N
atom  8.86309000e-01 2.61565000e+01 4.23716000e+00	Si
atom  1.60187000e+00 2.74758000e+01 1.43607000e+00	Si
atom  3.94060000e-01 2.73380000e+01 1.78137000e-01	N
atom  -1.38550000e-01 2.76733000e+01 3.82595000e+00	N
atom  -4.44985000e-01 2.56807000e+01 2.41116000e-01	Si
atom  -1.00544000e-01 2.12469000e+01 5.21375000e+00	N
atom  1.27665000e+00 2.13769000e+01 7.65465000e+00	N
atom  1.02024000e+00 2.21876000e+01 6.16569000e+00	Si
atom  2.89679000e-01 2.37940000e+01 6.39761000e+00	N
atom  1.60553000e+00 2.48115000e+01 6.80759000e+00	Si
atom  1.16011000e+00 2.49049000e+01 9.76296000e+00	Si
atom  2.58506000e-01 2.83760000e+01 5.39390000e+00	Si
atom  1.71591000e+00 2.92720000e+01 5.52064000e+00	N
atom  7.47738000e-01 2.72864000e+01 7.78941000e+00	Si
atom  6.83901000e-01 2.68729000e+01 6.06507000e+00	N
atom  1.10867000e+00 2.56895000e+01 8.27883000e+00	N
atom  1.05220000e+00 2.33404000e+01 1.25755000e+01	N
atom  9.28031000e-01 2.28547000e+01 1.42901000e+01	Si
atom  2.31064000e-02 2.33306000e+01 1.11794000e+01	Si
atom  -2.43453000e-01 2.15838000e+01 1.41314000e+01	N
atom  -4.63698000e-01 2.49057000e+01 1.04754000e+01	N
atom  1.24319000e+00 2.31197000e+01 9.96977000e+00	N
atom  3.42541000e-01 2.95930000e+01 9.96354000e+00	N
atom  1.23546000e+00 2.83367000e+01 1.26708000e+01	Si
atom  2.77300000e-01 2.69425000e+01 1.31431000e+01	N
atom  8.93358000e-01 2.59248000e+01 1.43569000e+01	Si
atom  2.07099000e-01 2.97368000e+01 1.26601000e+01	N
atom  2.85766000e-01 2.43428000e+01 1.48597000e+01	N
atom  7.61561000e-01 2.05418000e+01 1.73854000e+01	Si
atom  1.43303000e+00 2.42367000e+01 1.96377000e+01	N
atom  1.78031000e+00 2.66352000e+01 1.57945000e+01	N
atom  1.78651000e+00 2.69412000e+01 1.87767000e+01	N
atom  1.71922000e+00 2.91474000e+01 1.64196000e+01	N
atom  2.94954000e-01 3.01256000e+01 1.60879000e+01	Si
atom  1.27530000e+00 2.75891000e+01 1.71811000e+01	Si
atom  6.13201000e-01 2.29733000e+01 2.21738000e+01	N
atom  6.31616000e-01 2.28943000e+01 2.03824000e+01	Si
atom  1.39509000e+00 2.13129000e+01 2.02167000e+01	N
atom  1.50130000e+00 2.39389000e+01 2.33118000e+01	Si
atom  1.85047000e+00 2.27256000e+01 2.45755000e+01	N
atom  6.89580000e-01 2.52335000e+01 2.40197000e+01	N
atom  1.01845000e+00 2.66395000e+01 2.30784000e+01	Si
atom  2.75005000e-02 2.90497000e+01 2.18393000e+01	Si
atom  1.67138000e+00 2.63865000e+01 2.15102000e+01	N
atom  9.89072000e-01 2.58801000e+01 1.99802000e+01	Si
atom  -2.52445000e-01 2.91325000e+01 2.00922000e+01	N
atom  -2.81220000e-01 2.76597000e+01 2.28509000e+01	N
atom  1.78918000e+00 2.90281000e+01 2.17079000e+01	N
atom  -1.33481000e-01 2.42813000e+01 2.64240000e+01	N
atom  8.09614000e-02 2.17651000e+01 2.66134000e+01	N
atom  1.08687000e+00 2.31088000e+01 2.60405000e+01	Si
atom  3.91008000e-02 2.14665000e+01 2.82984000e+01	Si
atom  1.64578000e+00 2.14805000e+01 2.88060000e+01	N
atom  7.43486000e-01 2.69931000e+01 2.64011000e+01	N
atom  1.60800000e+00 2.92746000e+01 2.74678000e+01	N
atom  -1.72513000e-01 2.57290000e+01 2.54986000e+01	Si
atom  5.14337000e-01 2.72048000e+01 2.95548000e+01	N
atom  5.10177000e-01 2.79073000e+01 2.78856000e+01	Si
atom  1.37392000e-01 3.02891000e+01 2.68691000e+01	Si
atom  4.68590000e-01 2.16640000e+01 3.33258000e+01	N
atom  8.19268000e-01 2.34862000e+01 3.08089000e+01	N
atom  1.40319000e+00 2.48694000e+01 3.17202000e+01	Si
atom  2.01116000e-01 2.08483000e+01 3.07754000e+01	N
atom  1.57345000e+00 2.19090000e+01 3.04471000e+01	Si
atom  2.01019000e+00 2.25046000e+01 3.30810000e+01	Si
atom  -7.86082000e-02 2.57462000e+01 3.18413000e+01	N
atom  1.31537000e-01 2.70685000e+01 3.42140000e+01	N
atom  1.76452000e+00 2.77665000e+01 3.37339000e+01	Si
atom  1.76462000e+00 2.83380000e+01 3.20571000e+01	N
atom  1.94023000e+00 2.99974000e+01 3.16193000e+01	Si
atom  1.10963000e+00 2.09376000e+01 3.50770000e+01	Si
atom  1.51340000e+00 2.46362000e+01 3.59940000e+01	N
atom  6.97431000e-01 2.31916000e+01 3.85243000e+01	N
atom  3.15466000e-01 2.21130000e+01 3.60765000e+01	N
atom  -2.00590000e-02 2.37991000e+01 3.56678000e+01	Si
atom  1.80402000e+00 2.43167000e+01 3.77752000e+01	Si
atom  -2.57613000e-02 2.57123000e+01 3.82318000e+01	N
atom  1.04238000e+00 2.71102000e+01 3.81964000e+01	Si
atom  -1.89066000e-01 2.80151000e+01 3.71247000e+01	N
atom  1.73461000e+00 3.00162000e+01 3.85903000e+01	Si
atom  5.55047000e-02 3.00487000e+01 3.91332000e+01	N
atom  1.63802000e+00 2.89672000e+01 3.51222000e+01	N
atom  6.10911000e-02 2.82463000e+01 3.54317000e+01	Si
atom  1.02654000e+00 3.30048000e+01 6.99326000e-01	Si
atom  7.17703000e-01 3.16412000e+01 1.68811000e+00	N
atom  6.04301000e-01 3.42759000e+01 1.81764000e+00	N
atom  1.00537000e+00 3.42325000e+01 3.47814000e+00	Si
atom  -3.97713000e-01 3.31002000e+01 4.08790000e+00	N
atom  -2.28886000e-01 3.04230000e+01 3.86024000e+00	N
atom  6.13975000e-01 3.56805000e+01 4.23067000e+00	N
atom  1.49740000e-01 3.56743000e+01 7.77347000e-01	Si
atom  1.11133000e-01 3.70381000e+01 1.91687000e+00	N
atom  2.29645000e-01 3.96013000e+01 2.87682000e+00	N
atom  9.80709000e-01 3.84569000e+01 1.79644000e+00	Si
atom  8.01164000e-01 3.92837000e+01 2.35363000e-01	N
atom  2.33891000e-02 3.91644000e+01 4.53411000e+00	Si
atom  1.49412000e+00 3.81991000e+01 4.76708000e+00	N
atom  1.08278000e+00 3.08335000e+01 5.02527000e+00	Si
atom  3.73544000e-01 3.31340000e+01 7.12701000e+00	Si
atom  2.97226000e-01 3.15963000e+01 6.34350000e+00	N
atom  4.64263000e-02 3.32278000e+01 8.83651000e+00	N
atom  1.25015000e+00 3.42631000e+01 9.76494000e+00	Si
atom  -1.10285000e-01 4.02221000e+01 5.89486000e+00	N
atom  7.17570000e-01 3.70632000e+01 8.35927000e+00	Si
atom  1.77654000e+00 3.57083000e+01 8.84864000e+00	N
atom  1.06623000e-01 3.65737000e+01 6.80612000e+00	N
atom  1.27939000e+00 3.66405000e+01 5.48264000e+00	Si
atom  8.57819000e-01 3.88419000e+01 8.40346000e+00	N
atom  1.95400000e+00 3.98741000e+01 9.32589000e+00	Si
atom  -4.77774000e-01 3.95642000e+01 7.47643000e+00	Si
atom  9.04169000e-01 3.47433000e+01 1.14226000e+01	N
atom  1.57084000e+00 3.08150000e+01 1.35225000e+01	Si
atom  2.44634000e-01 3.07337000e+01 1.12943000e+01	Si
atom  1.65187000e+00 3.15015000e+01 1.18752000e+01	N
atom  4.47887000e-01 3.13023000e+01 1.48546000e+01	N
atom  -4.47288000e-01 3.27856000e+01 1.47978000e+01	Si
atom  8.06509000e-01 3.77310000e+01 1.19585000e+01	N
atom  4.38537000e-01 3.70813000e+01 1.35388000e+01	Si
atom  1.75536000e+00 3.60263000e+01 1.37992000e+01	N
atom  8.38196000e-01 4.00028000e+01 1.06985000e+01	N
atom  -1.89202000e-01 3.83763000e+01 1.06805000e+01	Si
atom  -4.40104000e-01 3.08918000e+01 1.75040000e+01	N
atom  2.95507000e-01 3.40435000e+01 1.56886000e+01	N
atom  3.23719000e-02 3.33278000e+01 1.91891000e+01	Si
atom  1.44391000e+00 3.32560000e+01 1.81389000e+01	N
atom  -8.94448000e-02 3.05767000e+01 1.92165000e+01	Si
atom  1.61749000e+00 3.43546000e+01 1.67828000e+01	Si
atom  1.60827000e+00 3.07042000e+01 1.92752000e+01	N
atom  8.21323000e-01 3.86680000e+01 1.78279000e+01	N
atom  3.06069000e-01 3.78128000e+01 1.51182000e+01	N
atom  1.71556000e+00 4.00823000e+01 1.72244000e+01	Si
atom  1.74050000e+00 3.60876000e+01 1.68522000e+01	N
atom  5.39039000e-01 3.72263000e+01 1.67722000e+01	Si
atom  3.20844000e-01 3.95904000e+01 1.49791000e+01	Si
atom  1.56773000e-01 3.90199000e+01 1.94473000e+01	Si
atom  1.90393000e+00 3.98929000e+01 1.55498000e+01	N
atom  2.63526000e-01 3.44938000e+01 2.04531000e+01	N
atom  1.59137000e+00 3.14915000e+01 2.40165000e+01	N
atom  -1.51205000e-01 3.12976000e+01 2.38452000e+01	Si
atom  1.26383000e-01 3.41741000e+01 2.21822000e+01	Si
atom  1.66130000e+00 3.32122000e+01 2.42595000e+01	Si
atom  -3.75139000e-01 3.31126000e+01 2.35115000e+01	N
atom  1.50419000e+00 3.93671000e+01 2.05418000e+01	N
atom  3.31373000e-01 3.81902000e+01 2.35702000e+01	N
atom  2.45831000e-01 3.62297000e+01 2.07763000e+01	Si
atom  -9.63529000e-02 3.98149000e+01 2.31985000e+01	Si
atom  1.84981000e+00 3.65275000e+01 2.12875000e+01	N
atom  9.02167000e-01 3.19721000e+01 2.93128000e+01	Si
atom  1.03426000e+00 3.33349000e+01 2.73626000e+01	Si
atom  1.15617000e+00 3.39879000e+01 2.57781000e+01	N
atom  4.41699000e-01 3.42343000e+01 2.87839000e+01	N
atom  2.51819000e-01 3.17677000e+01 2.76550000e+01	N
atom  6.06036000e-01 3.99644000e+01 2.74368000e+01	N
atom  1.76893000e+00 3.87187000e+01 2.70972000e+01	Si
atom  8.72241000e-01 3.72298000e+01 2.74173000e+01	N
atom  -7.61486000e-02 3.98299000e+01 2.90352000e+01	Si
atom  8.48396000e-01 3.09224000e+01 3.26037000e+01	N
atom  4.80597000e-01 3.24206000e+01 3.17049000e+01	Si
atom  1.43083000e+00 3.47201000e+01 3.01525000e+01	Si
atom  -1.87525000e-01 3.32917000e+01 3.41739000e+01	Si
atom  1.48363000e+00 3.35456000e+01 3.43398000e+01	N
atom  1.75821000e+00 3.31101000e+01 3.07753000e+01	N
atom  -4.04228000e-01 3.36485000e+01 3.25352000e+01	N
atom  1.63275000e+00 3.04855000e+01 2.99306000e+01	N
atom  3.21458000e-02 3.75582000e+01 3.07500000e+01	Si
atom  4.95641000e-01 3.59650000e+01 3.10881000e+01	N
atom  7.78387000e-01 3.90115000e+01 3.03246000e+01	N
atom  1.59984000e+00 3.39824000e+01 3.69811000e+01	N
atom  4.37203000e-01 3.42439000e+01 3.82246000e+01	Si
atom  1.43249000e-01 3.27497000e+01 3.91631000e+01	N
atom  1.67381000e+00 3.49104000e+01 3.55107000e+01	Si
atom  1.02834000e+00 3.89291000e+01 3.74800000e+01	N
atom  1.37484000e+00 3.87632000e+01 3.48234000e+01	N
atom  1.19325000e+00 3.52657000e+01 3.94408000e+01	N
atom  1.45897000e+00 3.78275000e+01 3.62461000e+01	Si
atom  7.74771000e-01 3.63090000e+01 3.57522000e+01	N
atom  1.31927000e-01 4.03591000e+01 3.70129000e+01	Si
atom  2.98052000e+00 4.28408000e+00 2.43907000e+00	Si
atom  3.42445000e+00 1.83552000e+00 2.56933000e+00	Si
atom  3.02341000e+00 6.42344000e-01 3.79091000e+00	N
atom  3.03905000e+00 5.17218000e+00 9.23241000e-01	N
atom  4.29542000e+00 3.30842000e+00 2.99349000e+00	N
atom  4.31562000e+00 8.99654000e-01 1.41126000e+00	N
atom  3.88964000e+00 7.93461000e+00 6.35861000e-01	N
atom  3.79582000e+00 1.03401000e+01 2.30939000e+00	N
atom  3.27793000e+00 2.79522000e+00 9.19443000e+00	Si
atom  3.99622000e+00 1.01767000e+00 6.38560000e+00	N
atom  2.80755000e+00 2.11306000e+00 6.94595000e+00	Si
atom  2.33018000e+00 1.47601000e+00 8.57010000e+00	N
atom  3.69578000e+00 3.44178000e+00 7.72257000e+00	N
atom  4.30434000e+00 3.04380000e-01 4.89292000e+00	Si
atom  3.19343000e+00 8.57428000e+00 6.43020000e+00	N
atom  2.87968000e+00 8.27696000e+00 9.01715000e+00	N
atom  2.96352000e+00 7.07895000e+00 5.57259000e+00	Si
atom  4.11573000e+00 8.75459000e+00 7.91762000e+00	Si
atom  4.44914000e+00 6.30581000e+00 5.40992000e+00	N
atom  3.15235000e+00 2.97122000e+00 1.15409000e+01	Si
atom  2.31762000e+00 3.80264000e+00 1.02131000e+01	N
atom  2.02216000e+00 2.13960000e+00 1.24814000e+01	N
atom  4.10677000e+00 2.00566000e+00 1.05093000e+01	N
atom  2.89320000e+00 7.27946000e+00 1.37797000e+01	N
atom  3.45983000e+00 7.46727000e+00 1.04043000e+01	Si
atom  4.01086000e+00 8.57400000e+00 1.16037000e+01	N
atom  1.92168000e+00 6.75602000e+00 1.08659000e+01	N
atom  2.61674000e+00 3.50547000e+00 1.47506000e+01	N
atom  4.02417000e+00 4.00333000e+00 1.55053000e+01	Si
atom  3.16828000e+00 7.33847000e-01 1.79999000e+01	N
atom  3.57155000e+00 2.40591000e+00 1.79275000e+01	Si
atom  2.15471000e+00 3.51726000e+00 1.79157000e+01	N
atom  3.48380000e+00 5.31093000e+00 1.64686000e+01	N
atom  4.26991000e+00 6.55070000e+00 1.74757000e+01	Si
atom  3.90777000e+00 8.07523000e+00 1.66226000e+01	N
atom  2.24419000e+00 9.68300000e+00 1.52187000e+01	N
atom  4.18220000e+00 9.27879000e+00 1.94080000e+01	N
atom  3.81020000e+00 6.60769000e+00 1.91657000e+01	N
atom  3.41321000e+00 8.38717000e+00 1.50593000e+01	Si
atom  3.73027000e+00 9.35671000e+00 1.77514000e+01	Si
atom  1.91241000e+00 8.95089000e+00 1.78883000e+01	N
atom  3.04254000e+00 4.51718000e+00 2.11759000e+01	N
atom  3.09686000e+00 2.84381000e+00 2.43087000e+01	N
atom  3.09393000e+00 2.91287000e+00 2.06830000e+01	Si
atom  3.69854000e+00 1.47921000e+00 2.17510000e+01	N
atom  4.13592000e+00 1.78881000e+00 2.34824000e+01	Si
atom  3.25119000e+00 5.77601000e+00 2.40164000e+01	N
atom  3.05189000e+00 9.49471000e+00 2.15674000e+01	N
atom  2.70399000e+00 8.45278000e+00 2.43047000e+01	N
atom  3.35086000e+00 8.04226000e+00 2.03965000e+01	Si
atom  2.29154000e+00 9.61554000e+00 2.30557000e+01	Si
atom  4.08699000e+00 6.92742000e+00 2.16662000e+01	N
atom  4.23856000e+00 5.62905000e+00 2.05162000e+01	Si
atom  1.92192000e+00 6.94833000e+00 2.40598000e+01	Si
atom  3.13222000e+00 9.92626000e-01 2.69552000e+01	N
atom  3.56113000e+00 4.42844000e+00 2.50316000e+01	Si
atom  2.67614000e+00 4.63254000e+00 2.65833000e+01	N
atom  3.70603000e+00 1.27036000e+00 2.86025000e+01	Si
atom  2.64003000e+00 3.71498000e+00 2.80040000e+01	Si
atom  4.15973000e+00 2.99241000e+00 2.86296000e+01	N
atom  2.51166000e+00 4.30868000e+00 2.97095000e+01	N
atom  2.32571000e+00 1.01088000e+00 2.97256000e+01	N
atom  3.53560000e+00 8.67934000e+00 2.92687000e+01	N
atom  1.88229000e+00 8.11959000e+00 2.87176000e+01	Si
atom  2.57970000e+00 7.35662000e+00 2.72794000e+01	N
atom  2.28547000e+00 3.30641000e+00 3.33355000e+01	N
atom  3.97408000e+00 3.63096000e+00 3.32582000e+01	Si
atom  4.11720000e+00 3.74258000e+00 3.01929000e+01	Si
atom  2.93231000e+00 1.06991000e+00 3.47212000e+01	N
atom  1.93370000e+00 9.16302000e+00 3.18841000e+01	N
atom  3.50373000e+00 6.27644000e+00 3.44603000e+01	Si
atom  2.95057000e+00 8.06311000e+00 3.09379000e+01	Si
atom  3.84737000e+00 7.97024000e+00 3.46676000e+01	N
atom  2.40995000e+00 4.79883000e+00 3.66785000e+01	Si
atom  2.70210000e+00 8.37864000e-01 3.88667000e+01	N
atom  3.23359000e+00 3.48639000e+00 3.74218000e+01	N
atom  2.96022000e+00 4.61280000e+00 3.91950000e+01	Si
atom  2.21176000e+00 2.22951000e+00 3.81031000e+01	Si
atom  4.20085000e+00 1.30259000e+00 3.96210000e+01	Si
atom  3.14563000e+00 8.49319000e+00 3.62058000e+01	Si
atom  2.07464000e+00 5.75931000e+00 3.80459000e+01	N
atom  3.86445000e+00 7.92024000e+00 3.77300000e+01	N
atom  3.35268000e+00 8.79563000e+00 3.91703000e+01	Si
atom  3.79768000e+00 5.63326000e+00 3.60257000e+01	N
atom  2.83722000e+00 1.01731000e+01 3.63515000e+01	N
atom  3.12368000e+00 1.27321000e+01 1.24565000e+00	N
atom  2.99212000e+00 1.17988000e+01 2.70540000e+00	Si
atom  3.75308000e+00 1.26414000e+01 4.02087000e+00	N
atom  2.59669000e+00 1.15204000e+01 1.02480000e-01	Si
atom  4.11301000e+00 1.41562000e+01 1.37543000e+00	Si
atom  2.44532000e+00 1.54989000e+01 4.29711000e+00	N
atom  2.35174000e+00 1.61563000e+01 8.77925000e-01	Si
atom  3.74981000e+00 1.58654000e+01 1.78353000e+00	N
atom  2.80048000e+00 1.92331000e+01 2.52753000e+00	Si
atom  2.10271000e+00 1.93272000e+01 9.45338000e-01	N
atom  2.03890000e+00 1.81280000e+01 3.75890000e+00	N
atom  2.63791000e+00 1.38897000e+01 4.92400000e+00	Si
atom  3.37549000e+00 1.31057000e+01 8.43226000e+00	N
atom  3.14569000e+00 1.14450000e+01 8.72654000e+00	Si
atom  3.70659000e+00 1.45620000e+01 6.17695000e+00	N
atom  2.51723000e+00 1.91092000e+01 8.33098000e+00	N
atom  2.04638000e+00 1.67533000e+01 9.14141000e+00	N
atom  3.39689000e+00 1.98568000e+01 5.72658000e+00	N
atom  3.80650000e+00 1.61585000e+01 5.35484000e+00	Si
atom  3.22471000e+00 1.74240000e+01 6.35584000e+00	N
atom  2.98943000e+00 1.80612000e+01 9.68796000e+00	Si
atom  3.78187000e+00 1.89167000e+01 7.13331000e+00	Si
atom  2.29123000e+00 1.85977000e+01 5.36233000e+00	Si
atom  2.51315000e+00 1.49005000e+01 1.21494000e+01	Si
atom  3.15727000e+00 1.13483000e+01 1.04503000e+01	N
atom  2.28748000e+00 1.08193000e+01 1.27538000e+01	N
atom  3.57434000e+00 1.48853000e+01 1.08644000e+01	N
atom  2.19182000e+00 1.11487000e+01 1.44111000e+01	Si
atom  3.86169000e+00 1.51689000e+01 1.32808000e+01	N
atom  3.65549000e+00 1.02843000e+01 1.17476000e+01	Si
atom  2.07871000e+00 1.83849000e+01 1.10905000e+01	N
atom  3.73299000e+00 1.57743000e+01 1.49399000e+01	Si
atom  3.49677000e+00 1.21756000e+01 1.48537000e+01	N
atom  4.13536000e+00 1.34399000e+01 1.73075000e+01	N
atom  2.91279000e+00 1.32342000e+01 1.61746000e+01	Si
atom  2.44417000e+00 1.48059000e+01 1.55739000e+01	N
atom  3.16203000e+00 1.17837000e+01 1.93690000e+01	N
atom  2.04000000e+00 1.44352000e+01 1.92866000e+01	N
atom  3.18269000e+00 1.69552000e+01 1.82897000e+01	N
atom  3.35517000e+00 1.74683000e+01 1.50184000e+01	N
atom  3.72323000e+00 1.98369000e+01 1.92062000e+01	N
atom  3.11620000e+00 1.86652000e+01 1.78928000e+01	Si
atom  1.75255000e+00 1.83218000e+01 1.53071000e+01	Si
atom  3.61251000e+00 1.49453000e+01 2.45043000e+01	Si
atom  2.40455000e+00 1.49445000e+01 2.09071000e+01	Si
atom  3.42278000e+00 1.16986000e+01 2.44479000e+01	Si
atom  4.00344000e+00 1.33113000e+01 2.42447000e+01	N
atom  3.77071000e+00 1.06292000e+01 2.05118000e+01	Si
atom  2.15277000e+00 1.12959000e+01 2.33661000e+01	N
atom  4.06116000e+00 1.54102000e+01 2.06751000e+01	N
atom  3.78743000e+00 1.91264000e+01 2.36621000e+01	Si
atom  3.26740000e+00 1.88873000e+01 2.19810000e+01	N
atom  1.88180000e+00 1.54707000e+01 2.44163000e+01	N
atom  2.74439000e+00 1.25980000e+01 2.72445000e+01	Si
atom  3.55326000e+00 1.49238000e+01 2.73749000e+01	Si
atom  2.77590000e+00 1.14955000e+01 2.59913000e+01	N
atom  2.04504000e+00 1.41338000e+01 2.68564000e+01	N
atom  1.98020000e+00 1.21791000e+01 2.86900000e+01	N
atom  3.89736000e+00 1.94283000e+01 2.66882000e+01	Si
atom  3.14183000e+00 1.87940000e+01 2.52470000e+01	N
atom  2.12825000e+00 1.72287000e+01 2.83788000e+01	Si
atom  3.13724000e+00 1.86400000e+01 2.81136000e+01	N
atom  3.31268000e+00 1.58472000e+01 2.88635000e+01	N
atom  4.21878000e+00 1.90006000e+01 2.93808000e+01	Si
atom  3.58608000e+00 1.37898000e+01 3.04698000e+01	N
atom  2.58715000e+00 1.07679000e+01 3.23766000e+01	Si
atom  3.56803000e+00 1.42138000e+01 3.44170000e+01	Si
atom  2.58910000e+00 1.24210000e+01 3.02438000e+01	Si
atom  3.52588000e+00 1.10340000e+01 3.07066000e+01	N
atom  2.67654000e+00 1.52470000e+01 3.03799000e+01	Si
atom  2.83945000e+00 1.64628000e+01 3.17028000e+01	N
atom  3.28888000e+00 1.91291000e+01 3.08819000e+01	N
atom  4.07503000e+00 1.61506000e+01 3.29470000e+01	Si
atom  2.04356000e+00 1.79530000e+01 3.11846000e+01	Si
atom  4.01511000e+00 1.59363000e+01 3.47051000e+01	N
atom  2.18011000e+00 1.24934000e+01 3.86619000e+01	N
atom  3.76570000e+00 1.27094000e+01 3.51793000e+01	N
atom  2.74293000e+00 1.41078000e+01 3.87941000e+01	Si
atom  2.42226000e+00 1.16115000e+01 3.54694000e+01	Si
atom  3.85014000e+00 1.04843000e+01 3.93369000e+01	N
atom  2.94492000e+00 1.51820000e+01 3.74010000e+01	N
atom  3.64470000e+00 1.98766000e+01 3.85342000e+01	N
atom  2.47838000e+00 1.97544000e+01 3.55148000e+01	N
atom  2.39757000e+00 1.88380000e+01 3.92231000e+01	Si
atom  3.45841000e+00 1.74368000e+01 3.66395000e+01	N
atom  3.67054000e+00 1.65846000e+01 3.81627000e+01	Si
atom  2.55606000e+00 1.60201000e+01 3.57501000e+01	Si
atom  2.72739000e+00 1.71767000e+01 3.93959000e+01	N
atom  2.06051000e+00 1.84683000e+01 3.64914000e+01	Si
atom  3.15837000e+00 2.36799000e+01 2.55468000e+00	N
atom  2.55266000e+00 2.21769000e+01 2.63840000e-01	N
atom  3.31366000e+00 2.20436000e+01 1.90843000e+00	Si
atom  2.48158000e+00 2.09566000e+01 2.93208000e+00	N
atom  2.08155000e+00 2.36114000e+01 3.97864000e+00	Si
atom  3.47186000e+00 2.53794000e+01 2.26459000e+00	Si
atom  3.73268000e+00 2.92365000e+01 6.81447000e-01	Si
atom  3.13239000e+00 2.75622000e+01 6.09606000e-01	N
atom  3.57681000e+00 2.99434000e+01 2.24095000e+00	N
atom  1.80147000e+00 2.62556000e+01 2.71097000e+00	N
atom  2.42853000e+00 2.23554000e+01 5.18781000e+00	N
atom  2.65260000e+00 2.37965000e+01 7.69417000e+00	N
atom  3.89008000e+00 2.15491000e+01 5.53116000e+00	Si
atom  2.19137000e+00 2.23644000e+01 8.75314000e+00	Si
atom  2.13291000e+00 2.50510000e+01 5.02354000e+00	N
atom  3.64095000e+00 2.18202000e+01 9.64548000e+00	N
atom  2.03281000e+00 2.82885000e+01 8.28528000e+00	N
atom  2.00852000e+00 2.90699000e+01 9.83260000e+00	Si
atom  3.66061000e+00 2.77630000e+01 7.91318000e+00	Si
atom  3.77740000e+00 2.56745000e+01 5.26524000e+00	Si
atom  3.84855000e+00 2.69477000e+01 6.41283000e+00	N
atom  4.05739000e+00 2.69998000e+01 9.41743000e+00	N
atom  3.34117000e+00 2.97589000e+01 6.11283000e+00	Si
atom  2.81284000e+00 2.09178000e+01 1.23168000e+01	N
atom  2.43514000e+00 2.43488000e+01 1.23232000e+01	Si
atom  3.88992000e+00 2.19045000e+01 1.13516000e+01	Si
atom  2.95030000e+00 2.07369000e+01 1.40405000e+01	Si
atom  3.90892000e+00 2.34936000e+01 1.23434000e+01	N
atom  2.36201000e+00 2.54001000e+01 1.09295000e+01	N
atom  2.43969000e+00 2.54216000e+01 1.36355000e+01	N
atom  3.34385000e+00 2.68775000e+01 1.09785000e+01	Si
atom  2.22876000e+00 2.92134000e+01 1.38759000e+01	N
atom  2.22004000e+00 2.81259000e+01 1.12766000e+01	N
atom  4.06593000e+00 2.77348000e+01 1.47893000e+01	N
atom  2.48991000e+00 2.22218000e+01 1.48569000e+01	N
atom  3.11672000e+00 2.40325000e+01 1.91450000e+01	Si