lattice_vector  3.99260237e+01 0.00000000e+00 0.00000000e+00
lattice_vector  2.44476386e-15 3.99260237e+01 0.00000000e+00
lattice_vector  2.44476386e-15 2.44476386e-15 3.99260237e+01
atom  7.22752000e-01 4.05774000e+00 3.39673000e+00	Si
atom  1.47424000e+00 2.74235000e+00 2.42042000e+00	N
atom  1.88871000e+00 4.68342000e+00 4.42782000e+00	N
atom  4.94000000e-01 1.77700000e+00 4.77432000e+00	N
atom  1.90249000e+00 1.65060000e+00 3.66834000e+00	Si
atom  3.41992000e-01 5.40673000e+00 2.35357000e+00	N
atom  1.58301000e+00 5.93709000e+00 1.27472000e+00	Si
atom  9.12546000e-01 9.08903000e+00 3.37326000e+00	N
atom  1.50512000e+00 9.06457000e+00 4.21195000e-01	N
atom  1.59350000e+00 8.69927000e+00 4.95968000e+00	Si
atom  -4.79400000e-01 1.01595000e+01 3.36182000e+00	Si
atom  4.93347000e-01 6.21964000e+00 -3.98767000e-02	N
atom  1.51639000e+00 3.70609000e+00 8.34673000e+00	Si
atom  -1.94750000e-02 4.13887000e+00 8.86578000e+00	N
atom  1.11098000e-01 2.68871000e+00 6.16910000e+00	Si
atom  1.65695000e+00 3.19202000e+00 6.73671000e+00	N
atom  1.68644000e+00 2.28756000e+00 9.34688000e+00	N
atom  1.43771000e+00 1.00468000e+01 5.95326000e+00	N
atom  -1.19846000e-01 5.91421000e+00 9.10225000e+00	Si
atom  -3.46462000e-01 7.85178000e+00 7.06406000e+00	Si
atom  2.74168000e-01 8.88601000e+00 8.33785000e+00	N
atom  1.48250000e+00 6.51348000e+00 8.95753000e+00	N
atom  8.17745000e-01 7.51170000e+00 5.97217000e+00	N
atom  1.83985000e-01 2.40405000e+00 1.04791000e+01	Si
atom  3.04998000e-01 3.61739000e+00 1.16853000e+01	N
atom  7.00100000e-01 8.18929000e-01 1.11095000e+01	N
atom  7.85926000e-01 6.10517000e-01 1.28184000e+01	Si
atom  1.80277000e+00 4.07710000e+00 1.40552000e+01	N
atom  9.15081000e-01 2.61982000e+00 1.47061000e+01	Si
atom  1.84212000e+00 4.07779000e+00 1.23602000e+01	Si
atom  1.88540000e+00 4.38332000e-01 9.87037000e+00	Si
atom  -2.73699000e-01 9.20708000e+00 1.09104000e+01	N
atom  1.24959000e+00 6.46691000e+00 1.33038000e+01	Si
atom  8.16475000e-01 9.07515000e+00 1.44008000e+01	Si
atom  8.52137000e-01 8.13727000e+00 1.28312000e+01	N
atom  1.32589000e+00 9.24577000e+00 1.14988000e+01	Si
atom  -3.59733000e-01 5.70527000e+00 1.34023000e+01	N
atom  1.71606000e+00 1.67080000e+00 1.76807000e+01	Si
atom  -2.49529000e-02 1.78706000e+00 1.78368000e+01	N
atom  -1.80321000e-01 3.66068000e+00 1.56137000e+01	N
atom  5.91957000e-02 6.39685000e+00 1.76922000e+01	N
atom  6.13137000e-02 9.31045000e+00 1.82541000e+01	N
atom  3.45615000e-01 8.00041000e+00 1.71548000e+01	Si
atom  -2.74998000e-01 8.41992000e+00 1.55724000e+01	N
atom  1.70280000e+00 6.05629000e+00 1.80382000e+01	Si
atom  6.86606000e-01 3.35562000e+00 2.11054000e+01	N
atom  1.38731000e+00 4.93611000e+00 2.10901000e+01	Si
atom  1.39312000e+00 3.52030000e+00 2.37563000e+01	N
atom  -1.96337000e-02 3.08512000e+00 2.26978000e+01	Si
atom  1.19348000e+00 5.43953000e+00 2.41512000e+01	Si
atom  5.30731000e-01 7.48437000e+00 2.18907000e+01	Si
atom  7.58610000e-02 8.41857000e+00 2.33456000e+01	N
atom  1.05638000e+00 5.92339000e+00 2.24928000e+01	N
atom  1.66686000e+00 8.36788000e+00 2.09304000e+01	N
atom  7.72347000e-01 9.48652000e+00 1.98566000e+01	Si
atom  1.23018000e+00 2.64224000e+00 2.53902000e+01	Si
atom  4.79179000e-01 3.39310000e+00 2.67994000e+01	N
atom  -1.21059000e-01 5.08394000e+00 2.68370000e+01	Si
atom  1.67828000e+00 2.91897000e+00 2.94833000e+01	N
atom  1.27778000e-01 2.09388000e+00 2.96379000e+01	Si
atom  -2.14955000e-01 1.54127000e+00 2.54707000e+01	N
atom  1.79056000e+00 3.75660000e+00 2.79802000e+01	Si
atom  -2.04940000e-01 1.13775000e+00 2.82655000e+01	N
atom  -2.41137000e-01 5.31032000e+00 2.50635000e+01	N
atom  9.51614000e-01 7.84754000e+00 2.87768000e+01	N
atom  1.25045000e-01 1.00287000e+01 2.80836000e+01	N
atom  6.14346000e-01 8.20936000e+00 2.49953000e+01	Si
atom  1.02468000e+00 9.89278000e+00 2.53890000e+01	N
atom  1.13628000e+00 5.38053000e+00 2.80064000e+01	N
atom  1.84128000e+00 9.41270000e+00 2.88617000e+01	Si
atom  -5.23254000e-01 8.44609000e+00 2.79081000e+01	Si
atom  1.09609000e-01 1.30769000e+00 3.11876000e+01	N
atom  1.01177000e+00 1.74677000e+00 3.25813000e+01	Si
atom  3.61727000e-02 2.16108000e+00 3.39475000e+01	N
atom  9.24763000e-01 5.38428000e+00 3.35428000e+01	N
atom  6.45423000e-01 6.31717000e+00 3.20617000e+01	Si
atom  6.07588000e-01 7.98460000e+00 3.24081000e+01	N
atom  1.37734000e+00 9.38572000e+00 3.18514000e+01	Si
atom  1.10131000e+00 1.00682000e+01 3.02533000e+01	N
atom  3.28167000e-01 1.61388000e+00 3.55893000e+01	Si
atom  1.16938000e+00 3.18655000e+00 3.81648000e+01	Si
atom  1.41667000e+00 2.62315000e+00 3.65527000e+01	N
atom  -4.02085000e-01 3.75774000e+00 3.84701000e+01	N
atom  6.31739000e-01 6.32050000e+00 3.62649000e+01	N
atom  9.89757000e-01 9.79990000e+00 3.88279000e+01	Si
atom  4.07663000e-01 8.99943000e+00 3.52075000e+01	N
atom  1.03840000e-02 8.49527000e+00 3.80858000e+01	N
atom  -1.68900000e-01 5.58074000e+00 3.49048000e+01	Si
atom  6.88538000e-01 7.99478000e+00 3.65567000e+01	Si
atom  1.31623000e+00 1.03907000e+01 3.55808000e+01	Si
atom  1.47625000e+00 1.42336000e+01 4.23098000e+00	N
atom  1.63052000e+00 1.27350000e+01 2.03523000e+00	N
atom  -1.27916000e-01 1.49979000e+01 4.14023000e+00	Si
atom  -1.52323000e-01 1.27350000e+01 1.88095000e+00	Si
atom  -4.12704000e-01 1.14358000e+01 4.63377000e+00	N
atom  8.74094000e-01 1.91239000e+01 2.49251000e+00	N
atom  1.15422000e+00 1.66820000e+01 1.25461000e+00	N
atom  1.16876000e+00 1.74350000e+01 2.79870000e+00	Si
atom  -5.21805000e-03 1.67529000e+01 3.85199000e+00	N
atom  -1.06498000e-01 1.71895000e+01 2.23637000e-01	Si
atom  -4.89177000e-01 1.96742000e+01 1.52977000e+00	Si
atom  9.00426000e-01 1.25122000e+01 9.24199000e+00	N
atom  7.46357000e-01 1.16265000e+01 5.99249000e+00	Si
atom  -3.72043000e-01 1.54056000e+01 8.88058000e+00	Si
atom  3.69261000e-01 1.77849000e+01 7.41429000e+00	Si
atom  5.51132000e-01 1.89782000e+01 8.65952000e+00	N
atom  8.87896000e-01 1.62290000e+01 7.97105000e+00	N
atom  1.57957000e+00 1.81820000e+01 6.22400000e+00	N
atom  4.48875000e-01 1.29662000e+01 1.23366000e+01	N
atom  9.65545000e-01 1.33466000e+01 1.07275000e+01	Si
atom  1.31678000e+00 1.17384000e+01 1.33108000e+01	Si
atom  3.89382000e-01 1.49472000e+01 1.03652000e+01	N
atom  2.12988000e-01 1.06236000e+01 1.40272000e+01	N
atom  3.09097000e-01 1.56690000e+01 1.29076000e+01	N
atom  5.97221000e-01 1.77859000e+01 1.12330000e+01	N
atom  1.07389000e+00 1.61736000e+01 1.14198000e+01	Si
atom  1.56359000e+00 1.57806000e+01 1.42250000e+01	Si
atom  -4.96179000e-02 1.80495000e+01 1.41768000e+01	N
atom  1.90391000e+00 1.88744000e+01 1.15445000e+01	Si
atom  1.30643000e+00 1.30835000e+01 1.82284000e+01	N
atom  1.34171000e+00 1.45581000e+01 1.70985000e+01	Si
atom  7.02857000e-01 1.52958000e+01 1.56189000e+01	N
atom  -3.92104000e-01 1.32692000e+01 1.87105000e+01	Si
atom  1.37501000e+00 2.02339000e+01 1.51424000e+01	N
atom  1.09915000e+00 1.83765000e+01 1.70565000e+01	N
atom  1.67113000e-02 1.71998000e+01 1.77269000e+01	Si
atom  1.45923000e+00 1.95129000e+01 1.95646000e+01	N
atom  1.31505000e+00 1.84879000e+01 1.53228000e+01	Si
atom  1.22436000e+00 1.59317000e+01 1.81503000e+01	N
atom  1.20542000e+00 1.17733000e+01 2.12991000e+01	Si
atom  9.16389000e-01 1.11091000e+01 2.41758000e+01	Si
atom  1.71391000e+00 1.07612000e+01 2.26172000e+01	N
atom  -3.39608000e-01 1.25134000e+01 2.12588000e+01	N
atom  1.77812000e+00 1.08600000e+01 1.98914000e+01	N
atom  1.69242000e+00 1.26271000e+01 2.45182000e+01	N
atom  1.73440000e+00 1.66786000e+01 2.06673000e+01	N
atom  2.09225000e-01 1.59868000e+01 2.38088000e+01	Si
atom  8.91833000e-01 1.92407000e+01 2.11813000e+01	Si
atom  6.44892000e-03 1.65300000e+01 2.07940000e+01	Si
atom  -2.18305000e-01 1.55681000e+01 2.21757000e+01	N
atom  -4.36736000e-01 1.82188000e+01 2.14961000e+01	N
atom  1.81437000e+00 1.64867000e+01 2.36976000e+01	N
atom  -2.15850000e-01 1.46693000e+01 2.47439000e+01	N
atom  2.31381000e-01 1.23775000e+01 2.66697000e+01	N
atom  1.09196000e+00 1.08893000e+01 2.69018000e+01	Si
atom  8.32137000e-01 1.36610000e+01 2.56284000e+01	Si
atom  -2.92607000e-01 1.09987000e+01 2.95414000e+01	Si
atom  -3.90270000e-01 1.60591000e+01 2.93417000e+01	N
atom  7.04805000e-01 1.69465000e+01 2.67513000e+01	N
atom  5.54181000e-01 2.01155000e+01 2.73933000e+01	Si
atom  5.57566000e-01 1.21734000e+01 3.34563000e+01	Si
atom  1.97985000e-01 1.26183000e+01 3.03601000e+01	N
atom  1.61449000e+00 1.34528000e+01 3.31999000e+01	N
atom  9.63518000e-01 1.50813000e+01 3.28574000e+01	Si
atom  7.38223000e-01 1.06175000e+01 3.28157000e+01	N
atom  1.21853000e+00 1.85503000e+01 3.34217000e+01	N
atom  8.26345000e-01 1.72963000e+01 3.11141000e+01	N
atom  5.66489000e-01 1.59370000e+01 3.43337000e+01	N
atom  1.52054000e+00 1.99037000e+01 3.06835000e+01	N
atom  1.50458000e+00 1.73418000e+01 3.45880000e+01	Si
atom  2.14670000e-01 2.00617000e+01 3.35332000e+01	Si
atom  1.82771000e+00 1.84936000e+01 3.17371000e+01	Si
atom  1.26800000e+00 1.59952000e+01 2.99464000e+01	Si
atom  4.60287000e-01 1.19076000e+01 3.52123000e+01	N
atom  4.19057000e-01 1.33317000e+01 3.77079000e+01	N
atom  1.59876000e+00 1.04844000e+01 3.72697000e+01	N
atom  1.88215000e+00 1.41118000e+01 3.81326000e+01	Si
atom  -2.50849000e-01 1.09213000e+01 3.93554000e+01	N
atom  -3.24158000e-01 2.00102000e+01 3.51802000e+01	N
atom  3.93757000e-01 1.67444000e+01 3.75858000e+01	Si
atom  3.91856000e-01 1.80409000e+01 3.87322000e+01	N
atom  9.30976000e-01 1.96387000e+01 3.88464000e+01	Si
atom  9.77649000e-01 1.78216000e+01 3.61416000e+01	N
atom  1.05270000e+00 1.94851000e+01 3.60126000e+01	Si
atom  1.83335000e+00 1.57815000e+01 3.74915000e+01	N
atom  1.37171000e+00 2.16134000e+01 3.45168000e+00	N
atom  1.24138000e-01 2.31473000e+01 1.49437000e+00	N
atom  9.46150000e-01 2.46415000e+01 1.54165000e+00	Si
atom  3.48619000e-02 2.05514000e+01 1.45889000e-01	N
atom  -2.26854000e-01 2.21527000e+01 2.88282000e+00	Si
atom  5.66061000e-02 2.22970000e+01 -9.04820000e-02	Si
atom  1.01422000e+00 2.52453000e+01 -5.99984000e-02	N
atom  3.38364000e-01 2.54865000e+01 2.91291000e+00	N
atom  4.02543000e-01 2.78584000e+01 2.77953000e-01	N
atom  1.81064000e+00 2.88062000e+01 -8.01937000e-02	Si
atom  1.10619000e+00 2.25799000e+01 4.90719000e+00	Si
atom  5.61587000e-01 2.20204000e+01 7.85437000e+00	Si
atom  1.36617000e+00 2.16610000e+01 6.35687000e+00	N
atom  2.74376000e-01 2.36484000e+01 8.24766000e+00	N
atom  1.44278000e+00 2.11696000e+01 9.16362000e+00	N
atom  -2.55188000e-01 2.03983000e+01 9.53336000e+00	Si
atom  1.44709000e+00 2.60004000e+01 7.34473000e+00	Si
atom  1.37040000e+00 2.89606000e+01 6.39486000e+00	Si
atom  -1.13115000e-01 3.06315000e+01 4.55488000e+00	N
atom  8.94770000e-02 2.81957000e+01 5.56411000e+00	N
atom  6.85393000e-01 2.98303000e+01 7.67264000e+00	N
atom  -7.64790000e-02 2.57233000e+01 6.58021000e+00	N
atom  1.03501000e+00 2.60179000e+01 9.04872000e+00	N
atom  7.06941000e-01 2.48032000e+01 1.36436000e+01	N
atom  -7.55400000e-02 2.20971000e+01 1.37974000e+01	N
atom  -1.83089000e-01 2.46091000e+01 1.10011000e+01	N
atom  -1.26491000e-01 2.36411000e+01 1.46324000e+01	Si
atom  1.62170000e+00 2.17534000e+01 1.08063000e+01	Si
atom  -4.08315000e-01 2.11530000e+01 1.24237000e+01	Si
atom  1.12944000e+00 2.03720000e+01 1.19085000e+01	N
atom  9.95228000e-01 2.43753000e+01 9.66420000e+00	Si
atom  1.07341000e+00 2.84590000e+01 1.48519000e+01	Si
atom  7.32666000e-01 2.74472000e+01 9.99563000e+00	Si
atom  -1.74132000e-02 2.57376000e+01 1.23837000e+01	Si
atom  9.87194000e-01 2.69667000e+01 1.16417000e+01	N
atom  1.23734000e-01 2.97294000e+01 1.15579000e+01	N
atom  6.64255000e-01 3.00810000e+01 1.43960000e+01	N
atom  1.76234000e+00 2.97873000e+01 1.11233000e+01	Si
atom  1.84642000e+00 2.56796000e+01 1.47300000e+01	Si
atom  6.35521000e-01 2.43343000e+01 1.87142000e+01	N
atom  1.31491000e+00 2.40643000e+01 1.70289000e+01	Si
atom  3.28590000e-02 2.13254000e+01 1.53985000e+01	Si
atom  5.14226000e-01 2.29217000e+01 1.60432000e+01	N
atom  1.09243000e+00 2.56346000e+01 1.63059000e+01	N
atom  9.76494000e-01 2.71670000e+01 1.73956000e+01	Si
atom  1.82975000e+00 2.84927000e+01 1.64466000e+01	N
atom  1.76919000e+00 2.53845000e+01 1.95254000e+01	Si
atom  7.96618000e-01 2.32717000e+01 2.13957000e+01	N
atom  8.41936000e-01 2.19307000e+01 2.24768000e+01	Si
atom  1.37661000e+00 2.46344000e+01 2.22716000e+01	Si
atom  1.11494000e-01 2.24734000e+01 2.39022000e+01	N
atom  1.14868000e-04 2.07084000e+01 2.16780000e+01	N
atom  -2.50684000e-01 2.36897000e+01 2.01100000e+01	Si
atom  5.16985000e-01 2.50760000e+01 2.37262000e+01	N
atom  8.26361000e-01 2.77831000e+01 2.32436000e+01	N
atom  1.02049000e+00 2.58930000e+01 2.10368000e+01	N
atom  2.75783000e-01 2.93194000e+01 2.36963000e+01	Si
atom  6.09763000e-01 2.75519000e+01 2.15122000e+01	Si
atom  1.06921000e+00 2.65507000e+01 2.44567000e+01	Si
atom  1.59610000e+00 2.99543000e+01 2.01184000e+01	Si
atom  -6.10630000e-02 2.98304000e+01 2.00401000e+01	N
atom  1.98256000e+00 2.84368000e+01 2.08827000e+01	N
atom  -1.59672000e-01 2.11627000e+01 2.49195000e+01	Si
atom  -1.77472000e-01 2.38460000e+01 2.87514000e+01	N
atom  1.10204000e-01 2.11947000e+01 2.85745000e+01	N
atom  1.22418000e+00 2.08674000e+01 2.59050000e+01	N
atom  1.26202000e+00 2.30134000e+01 2.95173000e+01	Si
atom  1.56172000e+00 2.80184000e+01 2.78511000e+01	Si
atom  -2.50670000e-02 2.87816000e+01 2.81492000e+01	N
atom  -6.66115000e-02 2.56296000e+01 2.88566000e+01	Si
atom  -8.77517000e-02 2.70412000e+01 2.57465000e+01	N
atom  1.39104000e+00 2.63589000e+01 2.83766000e+01	N
atom  -4.48211000e-02 2.96596000e+01 2.53699000e+01	N
atom  1.03981000e+00 2.39994000e+01 3.26742000e+01	N
atom  1.17627000e+00 2.23738000e+01 3.22356000e+01	Si
atom  2.68998000e-01 2.22974000e+01 3.07800000e+01	N
atom  1.23174000e+00 2.14657000e+01 3.36378000e+01	N
atom  3.43886000e-02 2.47975000e+01 3.37323000e+01	Si
atom  -1.94635000e-01 2.04830000e+01 3.02835000e+01	Si
atom  2.31190000e-01 2.87071000e+01 3.11834000e+01	N
atom  3.99879000e-01 2.71074000e+01 3.17459000e+01	Si
atom  1.00491000e+00 2.97679000e+01 3.23242000e+01	Si
atom  -1.63055000e-01 2.65373000e+01 3.32257000e+01	N
atom  1.61481000e+00 2.27654000e+01 3.90412000e+01	N
atom  7.52086000e-01 2.06273000e+01 3.74238000e+01	N
atom  9.23821000e-01 2.53929000e+01 3.51528000e+01	N
atom  -1.58556000e-01 2.64181000e+01 3.93641000e+01	Si
atom  1.77810000e+00 2.96899000e+01 3.47848000e+01	Si
atom  -1.07334000e-01 3.00461000e+01 3.76305000e+01	N
atom  -2.91261000e-01 2.70626000e+01 3.77905000e+01	N
atom  3.81892000e-01 2.70499000e+01 3.48267000e+01	Si
atom  5.83725000e-01 2.84833000e+01 3.73518000e+01	Si
atom  9.38599000e-01 2.84229000e+01 3.56344000e+01	N
atom  7.03206000e-01 3.19155000e+01 2.25893000e+00	N
atom  3.22184000e-01 3.12240000e+01 8.02035000e-01	Si
atom  3.34368000e-01 3.48552000e+01 4.32400000e+00	Si
atom  1.86543000e+00 3.40934000e+01 3.55086000e+00	N
atom  1.75403000e+00 3.05893000e+01 1.28263000e-01	N
atom  1.95970000e+00 3.94311000e+01 1.77552000e+00	Si
atom  9.29656000e-01 3.58779000e+01 1.51788000e+00	N
atom  8.71095000e-01 3.96451000e+01 5.22333000e-01	N
atom  1.41978000e+00 3.98936000e+01 3.31138000e+00	N
atom  3.78322000e-02 4.01063000e+01 4.25042000e+00	Si
atom  1.53458000e+00 3.66815000e+01 4.18616000e+00	N
atom  8.87241000e-01 3.58249000e+01 -2.40386000e-01	Si
atom  1.15320000e+00 3.14421000e+01 8.18397000e+00	Si
atom  2.34153000e-01 3.23147000e+01 6.99837000e+00	N
atom  9.00376000e-01 3.47191000e+01 5.93950000e+00	N
atom  4.59683000e-01 3.20712000e+01 5.26290000e+00	Si
atom  2.05593000e-01 3.49954000e+01 8.34308000e+00	N
atom  3.54217000e-01 3.20089000e+01 9.65688000e+00	N
atom  -3.12014000e-01 3.39020000e+01 6.98423000e+00	Si
atom  -1.23762000e-02 3.96719000e+01 7.31086000e+00	Si
atom  1.54628000e+00 3.95742000e+01 8.22509000e+00	N
atom  1.31878000e+00 3.78316000e+01 5.52876000e+00	Si
atom  1.71088000e+00 3.55197000e+01 7.49303000e+00	Si
atom  2.85814000e-03 3.90503000e+01 5.64279000e+00	N
atom  1.37303000e+00 3.72526000e+01 7.12460000e+00	N
atom  7.88317000e-01 3.47827000e+01 1.37509000e+01	N
atom  2.98269000e-01 3.22111000e+01 1.26337000e+01	N
atom  9.87091000e-01 3.29366000e+01 1.09957000e+01	Si
atom  1.24079000e+00 3.16857000e+01 1.40289000e+01	Si
atom  -3.07622000e-01 3.42330000e+01 1.11275000e+01	N
atom  -4.00086000e-01 3.39271000e+01 1.28176000e+01	Si
atom  1.20967000e+00 3.80808000e+01 1.43832000e+01	Si
atom  1.03799000e+00 3.88438000e+01 1.29013000e+01	N
atom  1.41052000e+00 3.77653000e+01 1.14702000e+01	Si
atom  1.72953000e-01 3.76953000e+01 1.02814000e+01	N
atom  1.65257000e+00 3.28932000e+01 1.86738000e+01	N
atom  5.72938000e-01 3.04769000e+01 1.75488000e+01	N
atom  5.01106000e-01 3.24660000e+01 1.55025000e+01	N
atom  1.03573000e-01 3.34557000e+01 1.89315000e+01	Si
atom  7.93935000e-01 3.41676000e+01 1.53715000e+01	Si
atom  -3.62694000e-01 3.16296000e+01 1.66654000e+01	Si
atom  -3.64112000e-01 3.76827000e+01 1.49354000e+01	N
atom  -3.80650000e-01 3.51880000e+01 1.88280000e+01	N
atom  1.85758000e+00 3.92647000e+01 1.55098000e+01	N
atom  -3.68680000e-01 3.61761000e+01 1.73972000e+01	Si
atom  1.03569000e+00 3.72249000e+01 1.76025000e+01	N
atom  1.27046000e+00 3.43513000e+01 2.14474000e+01	Si
atom  -1.02489000e-01 3.34231000e+01 2.07775000e+01	N
atom  1.55387000e+00 3.05531000e+01 2.36641000e+01	N
atom  1.27798000e+00 3.35215000e+01 2.45914000e+01	Si
atom  1.87024000e+00 3.39881000e+01 2.30285000e+01	N
atom  1.46003000e+00 3.73179000e+01 2.16878000e+01	Si
atom  6.27310000e-01 3.59494000e+01 2.11388000e+01	N
atom  4.72094000e-01 3.85802000e+01 2.23197000e+01	N
atom  1.49535000e+00 3.86088000e+01 2.37486000e+01	Si
atom  1.10053000e-01 3.99701000e+01 2.00859000e+01	N
atom  1.82857000e+00 3.96063000e+01 1.98852000e+01	Si
atom  6.83140000e-01 3.15887000e+01 2.92872000e+01	N
atom  1.06794000e+00 3.11340000e+01 2.53363000e+01	Si
atom  -3.69660000e-02 3.24912000e+01 2.51581000e+01	N
atom  8.76978000e-01 3.50582000e+01 2.51564000e+01	N
atom  6.04467000e-01 3.79604000e+01 2.62750000e+01	Si
atom  8.47690000e-01 3.83436000e+01 2.79720000e+01	N
atom  2.55149000e-01 3.90009000e+01 2.49223000e+01	N
atom  1.17541000e+00 3.23277000e+01 3.07900000e+01	Si
atom  4.10221000e-02 3.47911000e+01 3.31678000e+01	Si
atom  3.57722000e-02 3.34911000e+01 3.43640000e+01	N
atom  4.60356000e-01 3.05565000e+01 3.38151000e+01	N
atom  -1.38435000e-01 3.25793000e+01 3.18402000e+01	N
atom  -4.72784000e-01 3.20595000e+01 3.34832000e+01	Si
atom  1.54548000e+00 3.53521000e+01 3.03084000e+01	Si
atom  1.35092000e+00 3.54581000e+01 3.20964000e+01	N
atom  5.38263000e-01 3.94915000e+01 3.10280000e+01	Si
atom  3.93956000e-01 3.79430000e+01 3.17768000e+01	N
atom  1.22832000e+00 3.69767000e+01 3.29848000e+01	Si
atom  1.22296000e-01 3.62084000e+01 3.41430000e+01	N
atom  -4.66604000e-02 3.59092000e+01 2.96731000e+01	N
atom  1.02863000e+00 3.25515000e+01 3.69957000e+01	N
atom  -1.79591000e-01 3.33982000e+01 3.60713000e+01	Si
atom  -2.84486000e-01 3.16634000e+01 3.78467000e+01	Si
atom  7.36046000e-01 3.73149000e+01 3.90034000e+01	N
atom  5.36989000e-02 3.77837000e+01 3.64361000e+01	N
atom  1.36067000e+00 3.89032000e+01 3.66310000e+01	Si
atom  2.31727000e-01 3.89618000e+01 3.90455000e+01	Si
atom  1.21575000e+00 4.00249000e+01 3.53287000e+01	N
atom  3.43976000e-01 3.62039000e+01 3.58468000e+01	Si
atom  1.13389000e+00 3.99244000e+01 3.79755000e+01	N
atom  3.37595000e+00 2.04353000e+00 4.44589000e+00	N
atom  2.60713000e+00 4.65027000e+00 7.00613000e-01	N
atom  2.64246000e+00 2.79268000e+00 1.03525000e+00	Si
atom  3.04179000e+00 8.40003000e-01 1.15277000e+00	N
atom  4.27496000e+00 2.91563000e+00 1.92073000e+00	N
atom  2.57802000e+00 7.23102000e+00 2.07481000e+00	N
atom  3.71377000e+00 7.22860000e+00 3.34600000e+00	Si
atom  3.21621000e+00 1.00688000e+01 2.43389000e+00	N
atom  3.31924000e+00 8.30425000e+00 4.78115000e+00	N
atom  2.01999000e+00 8.91363000e+00 2.00640000e+00	Si
atom  3.13509000e+00 2.57974000e+00 6.05989000e+00	Si
atom  3.63789000e+00 1.26477000e+00 7.16096000e+00	N
atom  2.98347000e+00 4.47972000e+00 8.99610000e+00	N
atom  4.06577000e+00 4.93712000e+00 7.77008000e+00	Si
atom  4.13841000e+00 3.97495000e+00 6.27248000e+00	N
atom  3.27141000e+00 5.22892000e+00 5.31961000e+00	Si
atom  3.30456000e+00 8.87344000e+00 7.85490000e+00	N
atom  3.45025000e+00 6.26512000e+00 6.68254000e+00	N
atom  3.92222000e+00 7.95185000e+00 6.42860000e+00	Si
atom  1.86467000e+00 8.22117000e+00 8.74451000e+00	Si
atom  3.08112000e+00 3.25047000e+00 1.15917000e+01	N
atom  3.46059000e+00 1.02062000e+00 1.05058000e+01	N
atom  3.78431000e+00 1.62036000e+00 1.22358000e+01	Si
atom  2.18401000e+00 1.45699000e+00 1.34414000e+01	N
atom  3.32701000e+00 2.83261000e+00 9.93363000e+00	Si
atom  2.38659000e+00 8.39739000e+00 1.04677000e+01	N
atom  2.66701000e+00 5.87825000e+00 1.00794000e+01	Si
atom  4.05572000e+00 8.21389000e+00 1.07646000e+01	Si
atom  2.04528000e+00 5.75707000e+00 1.18358000e+01	N
atom  2.24469000e+00 6.52536000e+00 1.47181000e+01	N
atom  2.70635000e+00 8.06819000e-01 1.49698000e+01	Si
atom  3.70139000e+00 3.83325000e+00 1.80267000e+01	Si
atom  2.60590000e+00 4.93640000e+00 1.71358000e+01	N
atom  2.53044000e+00 2.77342000e+00 1.87408000e+01	N
atom  2.62556000e+00 4.96616000e+00 1.53120000e+01	Si
atom  1.99118000e+00 2.07685000e+00 1.60108000e+01	N
atom  3.19071000e+00 8.93677000e+00 1.78751000e+01	Si
atom  2.18049000e+00 7.61266000e+00 1.73108000e+01	N
atom  4.02505000e+00 8.72314000e+00 1.94027000e+01	N
atom  2.48125000e+00 9.19276000e+00 1.49213000e+01	N
atom  3.35055000e+00 7.82577000e+00 1.54516000e+01	Si
atom  1.98749000e+00 5.77201000e+00 1.97103000e+01	N
atom  3.00358000e+00 4.14333000e+00 2.12863000e+01	N
atom  3.02974000e+00 3.58669000e+00 2.30294000e+01	Si
atom  3.67168000e+00 2.03743000e+00 2.28509000e+01	N
atom  2.43929000e+00 1.05002000e+00 2.08039000e+01	N
atom  3.69191000e+00 1.13149000e+00 2.42971000e+01	Si
atom  3.98501000e+00 4.76226000e+00 2.37711000e+01	N
atom  3.33902000e+00 4.57549000e-01 2.21304000e+01	Si
atom  2.23598000e+00 2.70440000e+00 2.04862000e+01	Si
atom  3.64876000e+00 5.45880000e+00 2.03303000e+01	Si
atom  3.44003000e+00 8.44200000e+00 2.09900000e+01	Si
atom  3.63339000e+00 9.88576000e+00 2.44899000e+01	N
atom  3.92918000e+00 6.79814000e+00 2.14033000e+01	N
atom  4.29079000e+00 9.60964000e+00 2.20851000e+01	N
atom  3.54129000e+00 3.73709000e+00 2.76455000e+01	N
atom  2.94650000e+00 2.12068000e+00 2.56340000e+01	N
atom  1.92400000e+00 6.45163000e+00 2.90810000e+01	Si
atom  3.64433000e+00 6.31918000e+00 2.87182000e+01	N
atom  3.79564000e+00 1.00180000e+01 2.61961000e+01	Si
atom  3.68189000e+00 8.28683000e+00 2.66415000e+01	N
atom  3.50901000e+00 8.88047000e+00 2.93600000e+01	N
atom  3.58730000e+00 6.99574000e+00 2.54698000e+01	Si
atom  1.89674000e+00 6.83372000e+00 2.50619000e+01	N
atom  2.95861000e+00 2.90853000e+00 3.06507000e+01	Si
atom  3.81690000e+00 1.43116000e+00 3.05264000e+01	N
atom  3.16777000e+00 3.29024000e+00 3.45276000e+01	N
atom  2.21153000e+00 4.22149000e+00 3.34535000e+01	Si
atom  4.07394000e+00 4.21068000e+00 3.06189000e+01	N
atom  3.89431000e+00 5.40620000e-01 3.46621000e+01	N
atom  3.58887000e+00 5.29954000e+00 3.31157000e+01	N
atom  1.89092000e+00 3.18710000e+00 3.21298000e+01	N
atom  3.50720000e+00 5.68281000e+00 3.12945000e+01	Si
atom  3.05463000e+00 9.14996000e+00 3.21570000e+01	N
atom  3.75218000e+00 9.88309000e+00 3.35829000e+01	Si
atom  4.22642000e+00 8.55938000e+00 3.09457000e+01	Si
atom  1.94178000e+00 6.22359000e+00 3.08032000e+01	N
atom  2.18371000e+00 4.56561000e+00 3.78686000e+01	N
atom  3.38447000e+00 4.85144000e+00 3.91714000e+01	Si
atom  2.74346000e+00 3.70369000e+00 3.62682000e+01	Si
atom  2.07858000e+00 6.00799000e-01 3.93384000e+01	Si
atom  4.14808000e+00 2.75215000e+00 3.67206000e+01	N
atom  3.27161000e+00 5.35439000e+00 3.57967000e+01	N
atom  1.80876000e+00 2.32182000e+00 3.95098000e+01	N
atom  3.73089000e+00 6.40899000e+00 3.85262000e+01	N
atom  2.38740000e+00 7.94326000e+00 3.69615000e+01	N
atom  2.97843000e+00 9.84001000e+00 3.50504000e+01	N
atom  3.58794000e+00 9.06676000e+00 3.65063000e+01	Si
atom  2.34576000e+00 6.16585000e+00 3.71132000e+01	Si
atom  3.82446000e+00 1.32327000e+01 4.30204000e+00	N
atom  2.68751000e+00 1.37122000e+01 3.03575000e+00	Si
atom  2.65637000e+00 1.26781000e+01 6.04806000e-01	Si
atom  3.21667000e+00 1.51763000e+01 2.26573000e+00	N
atom  2.43503000e+00 1.56526000e+01 7.98981000e-01	Si
atom  2.79077000e+00 1.74632000e+01 3.58991000e+00	N
atom  3.20324000e+00 1.99283000e+01 4.62575000e+00	N
atom  4.11905000e+00 1.63825000e+01 3.00678000e+00	Si
atom  2.17521000e+00 2.01629000e+01 3.11159000e+00	Si
atom  2.42885000e+00 1.97049000e+01 -2.61642000e-01	N
atom  1.88945000e+00 1.27289000e+01 6.55227000e+00	N
atom  2.96992000e+00 1.42860000e+01 8.67007000e+00	N
atom  2.32187000e+00 1.27658000e+01 8.27805000e+00	Si
atom  2.70685000e+00 1.38528000e+01 5.55266000e+00	Si
atom  3.44895000e+00 1.18053000e+01 9.31336000e+00	N
atom  3.12614000e+00 1.53906000e+01 6.18995000e+00	N
atom  4.12434000e+00 1.37102000e+01 9.82111000e+00	Si
atom  3.29239000e+00 1.98224000e+01 7.56581000e+00	N
atom  2.52474000e+00 1.57414000e+01 7.81406000e+00	Si
atom  3.45028000e+00 1.70329000e+01 8.44690000e+00	N
atom  2.81918000e+00 1.82703000e+01 5.08085000e+00	Si
atom  2.15771000e+00 1.96214000e+01 8.79505000e+00	Si
atom  2.68282000e+00 1.33919000e+01 1.11364000e+01	N
atom  2.77046000e+00 1.47020000e+01 1.36847000e+01	N
atom  3.18489000e+00 1.16975000e+01 1.11358000e+01	Si
atom  3.30469000e+00 1.47017000e+01 1.20925000e+01	Si
atom  2.43867000e+00 1.21329000e+01 1.45511000e+01	N
atom  1.91910000e+00 1.08424000e+01 1.18803000e+01	N
atom  3.36725000e+00 1.36349000e+01 1.48644000e+01	Si
atom  2.83234000e+00 1.61279000e+01 1.12798000e+01	N
atom  3.35888000e+00 1.86910000e+01 1.25339000e+01	N
atom  3.83616000e+00 1.79417000e+01 1.40389000e+01	Si
atom  3.62559000e+00 1.72550000e+01 1.01844000e+01	Si
atom  2.99019000e+00 1.89544000e+01 1.01553000e+01	N
atom  2.34923000e+00 1.72751000e+01 1.46136000e+01	N
atom  4.22369000e+00 1.98865000e+01 1.16344000e+01	Si
atom  3.05296000e+00 1.07859000e+01 1.55481000e+01	Si
atom  2.96963000e+00 1.42627000e+01 1.64584000e+01	N
atom  2.40143000e+00 1.17908000e+01 1.85123000e+01	Si
atom  3.91479000e+00 1.27360000e+01 1.87908000e+01	N
atom  2.67582000e+00 1.05382000e+01 1.72881000e+01	N
atom  4.07748000e+00 1.45068000e+01 1.77839000e+01	Si
atom  2.23252000e+00 1.92593000e+01 1.81331000e+01	Si
atom  2.48678000e+00 1.64773000e+01 1.91626000e+01	Si
atom  3.70092000e+00 1.51635000e+01 1.93938000e+01	N
atom  3.30474000e+00 1.79257000e+01 1.85806000e+01	N
atom  3.92400000e+00 1.93323000e+01 1.51304000e+01	N
atom  3.37427000e+00 1.08842000e+01 2.29396000e+01	Si
atom  3.86890000e+00 1.48732000e+01 2.44705000e+01	N
atom  3.33182000e+00 1.32261000e+01 2.46354000e+01	Si
atom  3.42612000e+00 1.36008000e+01 2.01687000e+01	Si
atom  2.17254000e+00 1.31824000e+01 2.11358000e+01	N
atom  4.18172000e+00 1.23151000e+01 2.33242000e+01	N
atom  2.56170000e+00 1.69588000e+01 2.21929000e+01	Si
atom  3.21875000e+00 1.97687000e+01 2.31967000e+01	Si
atom  2.19501000e+00 1.87188000e+01 2.22521000e+01	N
atom  4.16814000e+00 1.62902000e+01 2.21053000e+01	N
atom  2.69823000e+00 1.05232000e+01 2.75386000e+01	N
atom  3.99813000e+00 1.27146000e+01 2.61884000e+01	N
atom  3.41481000e+00 1.16244000e+01 2.88599000e+01	Si
atom  3.26899000e+00 1.39121000e+01 2.73288000e+01	Si
atom  2.37403000e+00 1.29894000e+01 2.84792000e+01	N
atom  2.13352000e+00 1.46450000e+01 2.62324000e+01	N
atom  3.38632000e+00 1.93452000e+01 2.49184000e+01	N
atom  2.24045000e+00 1.75658000e+01 2.73702000e+01	Si
atom  2.20959000e+00 1.92667000e+01 2.74370000e+01	N
atom  2.69632000e+00 1.59576000e+01 2.51326000e+01	Si
atom  4.05594000e+00 1.61698000e+01 2.89658000e+01	Si
atom  3.41168000e+00 1.71437000e+01 2.61888000e+01	N
atom  2.38034000e+00 1.65768000e+01 2.87867000e+01	N
atom  3.18784000e+00 1.19330000e+01 3.05571000e+01	N
atom  3.35434000e+00 1.32040000e+01 3.35287000e+01	Si
atom  4.06039000e+00 1.15596000e+01 3.32264000e+01	N
atom  2.10254000e+00 1.46563000e+01 3.05314000e+01	N
atom  3.46929000e+00 1.51625000e+01 3.14020000e+01	Si
atom  3.71028000e+00 1.42945000e+01 3.47555000e+01	N
atom  4.24208000e+00 1.38097000e+01 3.21996000e+01	N
atom  1.82569000e+00 1.30526000e+01 3.01224000e+01	Si
atom  3.49652000e+00 1.83277000e+01 3.15570000e+01	N
atom  2.51862000e+00 1.58536000e+01 3.27799000e+01	N
atom  3.82721000e+00 1.58378000e+01 3.39793000e+01	Si
atom  2.93468000e+00 1.14776000e+01 3.78125000e+01	Si
atom  3.14143000e+00 1.31358000e+01 3.74478000e+01	N
atom  2.51322000e+00 1.13371000e+01 3.94674000e+01	N
atom  2.26374000e+00 1.42220000e+01 3.98281000e+01	N
atom  4.24274000e+00 1.39939000e+01 3.64010000e+01	Si
atom  2.54710000e+00 2.01488000e+01 3.54573000e+01	N
atom  3.07207000e+00 1.68868000e+01 3.50927000e+01	N
atom  3.09398000e+00 1.67142000e+01 3.68133000e+01	Si
atom  3.39784000e+00 1.82293000e+01 3.92121000e+01	Si
atom  3.81914000e+00 1.97094000e+01 3.66079000e+01	Si
atom  3.48983000e+00 1.82692000e+01 3.74926000e+01	N
atom  3.52747000e+00 1.65756000e+01 3.97754000e+01	N
atom  2.58855000e+00 2.46240000e+01 2.11886000e+00	N
atom  4.09364000e+00 2.47107000e+01 1.41165000e+00	Si
atom  3.86050000e+00 2.05115000e+01 4.10430000e-01	Si
atom  3.67701000e+00 2.04526000e+01 2.17753000e+00	N
atom  1.96241000e+00 2.52545000e+01 3.64613000e+00	Si
atom  3.70692000e+00 2.74260000e+01 2.39132000e+00	Si
atom  3.22466000e+00 2.83765000e+01 9.15580000e-01	N
atom  2.76760000e+00 2.67382000e+01 3.79057000e+00	N
atom  2.11802000e+00 2.39182000e+01 4.79803000e+00	N
atom  3.39281000e+00 2.39049000e+01 6.06262000e+00	Si
atom  2.94154000e+00 2.08807000e+01 6.26519000e+00	Si
atom  3.92615000e+00 2.22959000e+01 6.44460000e+00	N
atom  2.96011000e+00 2.51459000e+01 7.15091000e+00	N
atom  3.56341000e+00 2.79438000e+01 4.83042000e+00	Si
atom  3.06229000e+00 2.82530000e+01 8.57910000e+00	Si
atom  2.12146000e+00 2.75926000e+01 7.22878000e+00	N
atom  2.63135000e+00 2.93511000e+01 5.24880000e+00	N
atom  4.08538000e+00 2.69222000e+01 9.06334000e+00	N
atom  3.79429000e+00 2.30739000e+01 1.09919000e+01	Si