lattice_vector  3.99359956e+01 0.00000000e+00 0.00000000e+00
lattice_vector  2.44537446e-15 3.99359956e+01 0.00000000e+00
lattice_vector  2.44537446e-15 2.44537446e-15 3.99359956e+01
atom  7.56042000e-01 4.20755000e+00 4.08734000e+00	N
atom  6.49791000e-01 4.42118000e+00 1.20523000e+00	N
atom  5.23655000e-01 3.36019000e+00 2.58017000e+00	Si
atom  1.40784000e-01 9.49215000e-01 3.85364000e+00	N
atom  1.66568000e+00 8.03803000e-01 3.06234000e+00	Si
atom  2.02212000e+00 2.40235000e+00 2.45848000e+00	N
atom  -4.34788000e-01 8.33445000e+00 6.62158000e-01	N
atom  1.14043000e+00 2.21979000e+00 8.32378000e+00	N
atom  1.44394000e+00 5.08360000e+00 8.82871000e+00	N
atom  1.58398000e+00 5.04928000e-01 8.64545000e+00	Si
atom  -4.71329000e-01 4.62328000e+00 6.59257000e+00	N
atom  7.32840000e-01 8.25637000e+00 8.23924000e+00	Si
atom  1.03700000e+00 8.94962000e+00 5.24980000e+00	N
atom  -7.45804000e-02 5.62036000e+00 8.07982000e+00	Si
atom  -5.59750000e-01 9.19442000e+00 7.48742000e+00	N
atom  7.92223000e-01 6.88882000e+00 7.14937000e+00	N
atom  8.76602000e-01 7.24242000e+00 5.43890000e+00	Si
atom  -3.47555000e-01 9.76310000e+00 5.81064000e+00	Si
atom  7.81016000e-01 1.59089000e+00 1.12728000e+01	Si
atom  1.28530000e+00 1.95805000e+00 1.37777000e+01	Si
atom  6.77437000e-01 6.25411000e-01 1.27896000e+01	N
atom  1.58553000e+00 2.82915000e+00 1.22890000e+01	N
atom  1.87132000e+00 6.09879000e-01 1.03118000e+01	N
atom  9.46040000e-01 5.43756000e+00 1.15688000e+01	N
atom  1.30023000e+00 6.41061000e+00 1.44013000e+01	Si
atom  1.45931000e+00 6.21032000e+00 1.01382000e+01	Si
atom  1.30117000e+00 9.64730000e+00 1.44920000e+01	Si
atom  -3.38535000e-01 6.21427000e+00 1.38308000e+01	N
atom  -4.51497000e-01 9.60543000e+00 1.44744000e+01	N
atom  2.80014000e-01 7.38321000e+00 9.66431000e+00	N
atom  -5.54550000e-02 2.28745000e+00 1.48248000e+01	N
atom  1.03340000e+00 1.49906000e+00 1.95547000e+01	N
atom  5.98194000e-01 2.14865000e+00 1.80078000e+01	Si
atom  8.66821000e-01 3.80604000e+00 1.75461000e+01	N
atom  -1.50619000e-01 4.99257000e+00 1.68708000e+01	Si
atom  -3.97236000e-01 9.37872000e-01 1.58362000e+01	Si
atom  1.65896000e+00 9.87133000e+00 1.89430000e+01	N
atom  7.14298000e-01 9.93961000e+00 1.75317000e+01	Si
atom  -4.29627000e-01 8.68802000e+00 1.71785000e+01	N
atom  9.38005000e-01 6.18029000e+00 1.62293000e+01	N
atom  7.90917000e-01 2.36432000e+00 2.21559000e+01	N
atom  4.85236000e-01 9.65655000e-01 2.10863000e+01	Si
atom  8.84729000e-02 3.94730000e+00 2.19558000e+01	Si
atom  1.27279000e+00 5.22828000e+00 2.21737000e+01	N
atom  6.19397000e-01 6.85821000e+00 2.18086000e+01	Si
atom  6.03793000e-01 9.60871000e+00 2.38328000e+01	N
atom  9.53546000e-01 9.52315000e+00 2.05468000e+01	Si
atom  1.75176000e+00 8.01956000e+00 2.12342000e+01	N
atom  -2.22274000e-01 7.01545000e+00 2.34444000e+01	N
atom  1.37507000e+00 3.98171000e+00 2.48533000e+01	N
atom  5.53201000e-01 2.81912000e+00 2.58333000e+01	Si
atom  1.58905000e+00 1.52387000e+00 2.62912000e+01	N
atom  1.21302000e+00 2.18667000e+00 2.92860000e+01	N
atom  4.46715000e-02 3.80783000e+00 2.72373000e+01	N
atom  -2.28420000e-01 2.84104000e+00 2.86257000e+01	Si
atom  -2.29018000e-01 9.45477000e+00 2.92648000e+01	Si
atom  9.65791000e-01 6.37024000e+00 2.65716000e+01	N
atom  9.60241000e-01 5.55784000e+00 2.93518000e+01	N
atom  1.68795000e+00 7.27714000e+00 2.94158000e+01	Si
atom  9.45999000e-01 8.44667000e+00 2.84786000e+01	N
atom  9.02840000e-01 8.07910000e+00 2.68189000e+01	Si
atom  -8.63315000e-02 3.60807000e+00 3.34314000e+01	N
atom  1.64184000e+00 3.49695000e+00 3.36569000e+01	Si
atom  1.14676000e+00 4.33314000e-01 3.31696000e+01	Si
atom  -2.70445000e-01 7.07277000e-01 3.41213000e+01	N
atom  1.58576000e+00 7.33829000e-01 3.01967000e+01	Si
atom  6.08076000e-01 2.82443000e-01 3.15403000e+01	N
atom  1.71804000e+00 8.09206000e+00 3.28102000e+01	Si
atom  1.49586000e+00 7.62125000e+00 3.10610000e+01	N
atom  -5.80882000e-02 8.39110000e+00 3.27682000e+01	N
atom  -1.74529000e-01 7.45365000e+00 3.13214000e+01	Si
atom  -3.44927000e-01 6.27879000e+00 3.42674000e+01	N
atom  1.36847000e+00 3.85042000e+00 3.80210000e+01	N
atom  -6.23416000e-02 2.92548000e+00 3.76016000e+01	Si
atom  8.67844000e-01 1.45771000e+00 3.77435000e+01	N
atom  1.62661000e+00 1.01915000e+01 3.88182000e+01	Si
atom  1.19154000e+00 6.10703000e+00 3.49228000e+01	Si
atom  1.34672000e+00 6.49125000e+00 3.66979000e+01	N
atom  6.24459000e-01 7.40539000e+00 3.95706000e+01	Si
atom  1.88346000e-01 8.86947000e+00 3.54150000e+01	N
atom  3.85499000e-01 7.96041000e+00 3.69480000e+01	Si
atom  1.04360000e+00 8.64931000e+00 3.83632000e+01	N
atom  -4.31621000e-01 6.06136000e+00 3.92397000e+01	N
atom  6.88558000e-01 1.40679000e+01 7.55852000e-01	N
atom  2.82829000e-01 1.48956000e+01 3.72801000e+00	Si
atom  -6.19714000e-02 1.27421000e+01 -6.81424000e-02	Si
atom  9.17521000e-01 1.12810000e+01 7.81568000e-02	N
atom  -2.08741000e-01 1.60328000e+01 2.55165000e+00	N
atom  -1.86714000e-01 1.55988000e+01 8.78293000e-01	Si
atom  3.74558000e-01 1.82979000e+01 4.92996000e-01	Si
atom  9.65551000e-01 1.66684000e+01 1.55087000e-01	N
atom  1.72315000e+00 1.93350000e+01 7.73370000e-01	N
atom  1.57344000e+00 1.35789000e+01 8.96264000e+00	Si
atom  1.65316000e+00 1.20863000e+01 6.32536000e+00	Si
atom  6.00049000e-01 1.46682000e+01 7.89449000e+00	N
atom  2.66601000e-01 1.14027000e+01 5.72504000e+00	N
atom  1.39461000e+00 1.51857000e+01 6.49071000e+00	Si
atom  1.65020000e+00 1.21100000e+01 8.10726000e+00	N
atom  -3.33474000e-01 1.76108000e+01 7.20473000e+00	N
atom  1.34861000e+00 1.77381000e+01 7.74784000e+00	Si
atom  4.10049000e-01 1.58190000e+01 5.19848000e+00	N
atom  1.45133000e+00 1.72422000e+01 9.40452000e+00	N
atom  1.56867000e+00 2.03832000e+01 9.86831000e+00	N
atom  4.66910000e-01 1.39791000e+01 1.02400000e+01	N
atom  -2.22769000e-02 1.37039000e+01 1.18544000e+01	Si
atom  -1.77304000e-02 1.06221000e+01 1.13552000e+01	Si
atom  1.62978000e+00 1.07601000e+01 1.08289000e+01	N
atom  1.27091000e+00 1.37497000e+01 1.29097000e+01	N
atom  1.77414000e+00 1.09181000e+01 1.33905000e+01	N
atom  1.78713000e+00 1.53826000e+01 1.32319000e+01	Si
atom  1.28055000e+00 1.83217000e+01 1.19155000e+01	N
atom  5.80612000e-01 1.65308000e+01 1.36196000e+01	N
atom  1.09360000e+00 1.81579000e+01 1.36325000e+01	Si
atom  -9.15940000e-03 1.92261000e+01 1.44627000e+01	N
atom  -1.00117000e-01 1.49483000e+01 1.76781000e+01	Si
atom  1.03865000e+00 1.26821000e+01 1.52767000e+01	N
atom  1.59334000e+00 1.46374000e+01 1.74814000e+01	N
atom  -2.56232000e-01 1.51655000e+01 1.94171000e+01	N
atom  7.62555000e-01 1.93462000e+01 1.72943000e+01	N
atom  4.17790000e-01 2.02679000e+01 1.58204000e+01	Si
atom  3.61349000e-02 1.68986000e+01 1.97995000e+01	Si
atom  1.52912000e+00 1.72681000e+01 1.89820000e+01	N
atom  1.08585000e+00 1.75986000e+01 1.72546000e+01	Si
atom  -2.12553000e-01 1.95238000e+01 1.87767000e+01	Si
atom  -1.09970000e-01 1.64603000e+01 1.68263000e+01	N
atom  8.60963000e-01 1.29072000e+01 2.32664000e+01	N
atom  1.08605000e+00 1.11846000e+01 2.32051000e+01	Si
atom  -1.48780000e-01 1.36795000e+01 2.03494000e+01	Si
atom  1.52314000e+00 1.33151000e+01 2.02877000e+01	N
atom  1.48976000e+00 1.09039000e+01 2.15250000e+01	N
atom  2.68375000e-01 1.89983000e+01 2.40534000e+01	Si
atom  1.77554000e-01 1.97772000e+01 2.05253000e+01	N
atom  1.23946000e+00 1.66677000e+01 2.47723000e+01	Si
atom  -3.42730000e-01 1.73481000e+01 2.44948000e+01	N
atom  1.86777000e+00 1.81337000e+01 2.37551000e+01	N
atom  1.07830000e+00 1.22076000e+01 2.90448000e+01	N
atom  -5.31191000e-01 1.20608000e+01 2.82870000e+01	Si
atom  -5.03297000e-01 1.48066000e+01 2.68815000e+01	Si
atom  7.42815000e-01 1.52901000e+01 2.58416000e+01	N
atom  1.01695000e+00 1.81445000e+01 2.91260000e+01	Si
atom  1.29506000e+00 1.67712000e+01 2.82736000e+01	N
atom  6.29440000e-01 1.97050000e+01 2.84715000e+01	N
atom  -4.64560000e-02 1.96803000e+01 2.57242000e+01	N
atom  8.35449000e-01 1.30998000e+01 3.17437000e+01	N
atom  1.20978000e+00 1.17378000e+01 3.07328000e+01	Si
atom  1.35036000e+00 1.46968000e+01 3.44478000e+01	Si
atom  -1.12309000e-01 1.06353000e+01 3.05558000e+01	N
atom  1.63538000e+00 1.12438000e+01 3.46626000e+01	N
atom  -2.77014000e-01 1.46505000e+01 3.37498000e+01	N
atom  -6.49213000e-01 1.37757000e+01 3.22726000e+01	Si
atom  1.64998000e+00 1.52926000e+01 3.03768000e+01	N
atom  -2.33852000e-01 2.01952000e+01 3.37833000e+01	N
atom  3.13363000e-02 1.57617000e+01 2.99929000e+01	Si
atom  -2.77808000e-01 1.75296000e+01 3.02313000e+01	N
atom  1.84247000e+00 1.20259000e+01 3.61888000e+01	Si
atom  1.12269000e+00 1.37364000e+01 3.59291000e+01	N
atom  6.32510000e-01 1.45236000e+01 3.74170000e+01	Si
atom  1.47668000e-01 1.13832000e+01 3.66252000e+01	N
atom  8.80324000e-02 1.05387000e+01 3.51385000e+01	Si
atom  -2.97134000e-01 1.33442000e+01 3.82708000e+01	N
atom  -2.76767000e-01 1.58899000e+01 3.70302000e+01	N
atom  3.05852000e-01 1.70325000e+01 3.58285000e+01	Si
atom  1.64887000e+00 1.63193000e+01 3.51322000e+01	N
atom  7.40872000e-01 1.84527000e+01 3.66987000e+01	N
atom  1.01817000e+00 2.15784000e+01 3.82658000e+00	Si
atom  2.47530000e-01 2.12196000e+01 2.31411000e+00	N
atom  1.08455000e+00 2.32643000e+01 4.21529000e+00	N
atom  5.85091000e-01 2.42154000e+01 4.71205000e-01	N
atom  1.84301000e+00 2.08479000e+01 1.58367000e+00	Si
atom  1.27758000e+00 2.54375000e+01 1.37145000e+00	Si
atom  -6.62103000e-02 2.96260000e+01 6.06788000e-02	Si
atom  -1.28202000e-01 2.61049000e+01 2.14201000e+00	N
atom  2.55125000e-01 2.77719000e+01 2.62134000e+00	Si
atom  -2.06794000e-01 2.78590000e+01 4.30926000e+00	N
atom  -1.36015000e-01 2.92691000e+01 1.76092000e+00	N
atom  1.55865000e+00 2.72721000e+01 4.80868000e+00	Si
atom  1.79951000e+00 2.62900000e+01 -1.58901000e-01	N
atom  1.94227000e+00 2.76112000e+01 3.01435000e+00	N
atom  1.98395000e-01 2.07558000e+01 5.02966000e+00	N
atom  -2.90095000e-02 2.35894000e+01 9.50051000e+00	N
atom  7.27896000e-01 2.41574000e+01 6.83038000e+00	N
atom  7.31734000e-01 2.29918000e+01 8.10156000e+00	Si
atom  8.51914000e-02 2.13630000e+01 7.96630000e+00	N
atom  -9.41121000e-02 2.40485000e+01 5.24710000e+00	Si
atom  -1.24044000e-01 2.05307000e+01 9.43943000e+00	Si
atom  -9.06447000e-02 2.92062000e+01 6.71802000e+00	N
atom  1.56182000e+00 2.85575000e+01 7.17516000e+00	Si
atom  -1.13780000e-01 2.86698000e+01 9.86585000e+00	Si
atom  1.58367000e+00 2.82750000e+01 9.07570000e+00	N
atom  7.85945000e-01 2.70040000e+01 6.70363000e+00	N
atom  1.65038000e+00 2.55647000e+01 6.89782000e+00	Si
atom  8.23565000e-01 2.42333000e+01 1.08238000e+01	Si
atom  4.65641000e-01 2.40684000e+01 1.45783000e+01	N
atom  -2.19222000e-01 2.83498000e+01 1.15095000e+01	N
atom  4.70557000e-01 2.93293000e+01 1.39739000e+01	N
atom  8.57103000e-01 2.59654000e+01 1.05621000e+01	N
atom  1.11864000e-01 2.67269000e+01 1.20403000e+01	Si
atom  1.49859000e+00 2.64068000e+01 1.31600000e+01	N
atom  1.44109000e+00 2.55510000e+01 1.47244000e+01	Si
atom  -3.45082000e-01 2.97291000e+01 1.24781000e+01	Si
atom  1.80077000e+00 2.11561000e+01 1.51217000e+01	N
atom  -2.45561000e-01 2.32047000e+01 1.83359000e+01	N
atom  1.42709000e+00 2.33206000e+01 1.85834000e+01	Si
atom  1.00826000e+00 2.26236000e+01 1.55631000e+01	Si
atom  1.55177000e+00 2.47212000e+01 1.96893000e+01	N
atom  9.20982000e-01 2.65612000e+01 1.60734000e+01	N
atom  1.63565000e+00 2.64696000e+01 1.97991000e+01	Si
atom  8.33175000e-01 2.23904000e+01 2.15221000e+01	N
atom  5.13369000e-01 2.29068000e+01 2.44244000e+01	N
atom  7.19391000e-01 2.41176000e+01 2.11285000e+01	Si
atom  1.40353000e+00 2.09371000e+01 2.06256000e+01	Si
atom  1.53821000e+00 2.22367000e+01 2.31359000e+01	Si
atom  1.19228000e+00 2.50251000e+01 2.25779000e+01	N
atom  1.30742000e+00 2.06151000e+01 2.37630000e+01	N
atom  1.34883000e+00 2.90731000e+01 2.30486000e+01	N
atom  2.36792000e-01 2.83955000e+01 2.17013000e+01	Si
atom  2.95298000e-01 2.74680000e+01 2.01984000e+01	N
atom  7.61468000e-02 2.59556000e+01 2.35892000e+01	Si
atom  2.27158000e-01 3.01654000e+01 2.39414000e+01	Si
atom  1.76032000e+00 2.16001000e+01 2.64356000e+01	N
atom  5.47580000e-01 2.38982000e+01 2.70431000e+01	N
atom  9.93004000e-01 2.23239000e+01 2.92625000e+01	N
atom  1.24497000e+00 2.41012000e+01 2.54607000e+01	Si
atom  6.26108000e-01 2.12466000e+01 2.52260000e+01	Si
atom  1.60420000e+00 2.07275000e+01 2.95548000e+01	Si
atom  1.71083000e+00 2.27383000e+01 2.77451000e+01	Si
atom  -4.05308000e-01 2.86109000e+01 2.85616000e+01	Si
atom  7.38918000e-01 2.58608000e+01 2.52245000e+01	N
atom  3.37493000e-01 2.71232000e+01 2.90782000e+01	N
atom  1.31896000e+00 2.94043000e+01 2.65005000e+01	Si
atom  4.08945000e-02 2.82217000e+01 2.68077000e+01	N
atom  -4.31586000e-01 2.66994000e+01 2.63119000e+01	Si
atom  5.66660000e-01 2.11719000e+01 3.25558000e+01	Si
atom  8.28326000e-01 2.31210000e+01 3.07248000e+01	Si
atom  1.11059000e-01 2.46460000e+01 3.03839000e+01	N
atom  -2.81723000e-01 2.24753000e+01 3.19650000e+01	N
atom  1.38111000e+00 2.04154000e+01 3.12293000e+01	N
atom  1.51802000e+00 2.67892000e+01 3.31618000e+01	Si
atom  3.83077000e-01 2.61358000e+01 3.43574000e+01	N
atom  2.51527000e-01 2.89840000e+01 3.34186000e+01	N
atom  9.95227000e-01 2.61779000e+01 3.03632000e+01	Si
atom  5.28500000e-01 2.70193000e+01 3.17489000e+01	N
atom  1.87699000e+00 2.96103000e+01 3.38873000e+01	Si
atom  1.62639000e+00 2.23499000e+01 3.49887000e+01	Si
atom  -1.65632000e-01 2.25489000e+01 3.50210000e+01	N
atom  -1.45944000e-01 2.08267000e+01 3.53521000e+01	Si
atom  1.50805000e+00 2.09165000e+01 3.58780000e+01	N
atom  1.00651000e+00 2.27487000e+01 3.96163000e+01	Si
atom  1.76537000e+00 2.36234000e+01 3.83008000e+01	N
atom  -2.26137000e-01 2.17867000e+01 3.91249000e+01	N
atom  9.10701000e-01 2.51937000e+01 3.87281000e+01	Si
atom  1.00853000e-01 2.61837000e+01 3.60949000e+01	Si
atom  1.39481000e+00 2.58094000e+01 3.71289000e+01	N
atom  4.43301000e-01 2.83320000e+01 3.91023000e+01	N
atom  1.24717000e-01 3.08516000e+01 2.50262000e+00	Si
atom  1.37365000e+00 3.40583000e+01 2.19368000e+00	N
atom  -8.48169000e-02 3.36252000e+01 1.37004000e+00	Si
atom  1.74006000e+00 3.13331000e+01 2.29290000e+00	N
atom  -2.64483000e-01 3.08425000e+01 4.20099000e+00	N
atom  1.34701000e+00 3.31104000e+01 4.73160000e+00	N
atom  1.88008000e+00 3.57187000e+01 1.81312000e+00	Si
atom  3.62057000e-01 3.66210000e+01 1.72464000e+00	N
atom  1.77740000e-01 3.82819000e+01 2.10347000e+00	Si
atom  1.51366000e+00 3.93862000e+01 1.81285000e+00	N
atom  -2.81156000e-01 3.82663000e+01 3.79496000e+00	N
atom  1.33914000e+00 3.59318000e+01 4.85442000e+00	N
atom  -1.09375000e-01 3.22627000e+01 5.14256000e+00	Si
atom  6.47963000e-01 3.32156000e+01 7.62846000e+00	Si
atom  1.29162000e-01 3.18431000e+01 6.84727000e+00	N
atom  1.51158000e-01 3.29195000e+01 9.36168000e+00	N
atom  -2.53589000e-01 3.02466000e+01 9.26210000e+00	N
atom  7.29866000e-01 3.79333000e+01 6.49587000e+00	N
atom  1.08289000e+00 3.53732000e+01 9.58162000e+00	N
atom  -1.50306000e-01 3.98511000e+01 8.56955000e+00	N
atom  1.41443000e-01 3.71453000e+01 5.07473000e+00	Si
atom  4.41978000e-01 3.27878000e+01 1.38726000e+01	N
atom  4.88169000e-01 3.10619000e+01 1.17818000e+01	N
atom  1.57860000e+00 3.19195000e+01 1.27727000e+01	Si
atom  5.98011000e-01 3.14866000e+01 1.01460000e+01	Si
atom  -1.96971000e-01 3.42733000e+01 1.33367000e+01	Si
atom  3.53224000e-01 3.53811000e+01 1.21829000e+01	N
atom  7.48516000e-01 3.77003000e+01 1.32864000e+01	N
atom  1.30875000e+00 3.62165000e+01 1.41002000e+01	Si
atom  1.20368000e+00 3.63531000e+01 1.10008000e+01	Si
atom  1.39590000e+00 3.92515000e+01 1.36557000e+01	Si
atom  -9.56906000e-03 3.76403000e+01 1.07801000e+01	N
atom  1.04240000e+00 3.33261000e+01 1.86475000e+01	N
atom  1.49345000e+00 3.21231000e+01 1.63145000e+01	N
atom  2.98845000e-02 3.22498000e+01 1.54558000e+01	Si
atom  1.23445000e+00 3.16801000e+01 1.95323000e+01	Si
atom  4.54472000e-01 3.05364000e+01 1.83719000e+01	N
atom  1.85743000e+00 3.05876000e+01 1.72315000e+01	Si
atom  -1.24606000e-01 3.54584000e+01 1.47217000e+01	N
atom  -1.31121000e-01 3.55827000e+01 1.76623000e+01	N
atom  5.21654000e-01 3.67787000e+01 1.86774000e+01	Si
atom  8.25039000e-01 3.97086000e+01 1.53200000e+01	N
atom  8.95218000e-01 3.82131000e+01 1.62725000e+01	Si
atom  1.33361000e+00 3.81120000e+01 1.79233000e+01	N
atom  9.27767000e-01 3.41565000e+01 2.02769000e+01	Si
atom  1.13361000e-01 3.16281000e+01 2.30330000e+01	N
atom  1.65105000e+00 3.23070000e+01 2.22947000e+01	Si
atom  2.06643000e-01 3.23516000e+01 2.07213000e+01	N
atom  1.84838000e+00 3.39525000e+01 2.17410000e+01	N
atom  1.38932000e+00 3.67241000e+01 2.38782000e+01	Si
atom  1.04324000e+00 3.68416000e+01 2.21738000e+01	N
atom  -1.60198000e-02 3.97670000e+01 2.43178000e+01	N
atom  1.54788000e+00 3.95216000e+01 2.35742000e+01	Si
atom  1.72506000e+00 3.99072000e+01 2.18444000e+01	N
atom  -3.69764000e-01 3.74523000e+01 1.99627000e+01	N
atom  1.53994000e+00 3.22244000e+01 2.52715000e+01	Si
atom  9.37491000e-01 3.05925000e+01 2.54125000e+01	N
atom  6.96086000e-01 3.34691000e+01 2.62206000e+01	N
atom  1.79414000e-01 3.41071000e+01 2.87145000e+01	N
atom  1.53902000e+00 3.37511000e+01 2.77075000e+01	Si
atom  -4.49857000e-01 3.08637000e+01 2.95701000e+01	Si
atom  4.90391000e-01 3.01813000e+01 2.83479000e+01	N
atom  -1.78515000e-01 3.70429000e+01 2.48830000e+01	N
atom  6.99887000e-01 3.83171000e+01 2.86339000e+01	Si
atom  8.47457000e-01 3.87021000e+01 2.69799000e+01	N
atom  4.70500000e-01 3.66635000e+01 2.91002000e+01	N
atom  -3.33078000e-01 3.86156000e+01 2.57467000e+01	Si
atom  9.98925000e-01 3.34137000e+01 3.23267000e+01	N
atom  1.84472000e-01 3.41010000e+01 3.36807000e+01	Si
atom  6.61600000e-01 3.17422000e+01 3.21885000e+01	Si
atom  4.96955000e-01 3.19392000e+01 3.04569000e+01	N
atom  5.05857000e-01 3.37386000e+01 3.04171000e+01	Si
atom  1.00221000e-02 3.63851000e+01 3.17980000e+01	Si
atom  1.77801000e-01 3.58301000e+01 3.33937000e+01	N
atom  1.63627000e+00 3.68593000e+01 3.15203000e+01	N
atom  1.77850000e+00 3.88408000e+01 3.35660000e+01	N
atom  8.89860000e-01 3.08075000e+01 3.50488000e+01	N
atom  1.25095000e+00 3.37525000e+01 3.49504000e+01	N
atom  3.21749000e-01 3.39499000e+01 3.64305000e+01	Si
atom  8.58328000e-01 3.22126000e+01 3.84986000e+01	Si
atom  1.37379000e+00 3.47241000e+01 3.75016000e+01	N
atom  9.82241000e-01 3.50249000e+01 3.91172000e+01	Si
atom  1.07003000e+00 3.08981000e+01 3.96707000e+01	N
atom  6.59737000e-01 3.34511000e+01 3.97177000e+01	N
atom  1.83471000e+00 3.83645000e+01 3.52980000e+01	Si
atom  8.28782000e-01 3.97129000e+01 3.78212000e+01	Si
atom  -3.20340000e-01 3.60803000e+01 3.91734000e+01	N
atom  -6.71365000e-02 3.64901000e+01 3.50081000e+01	Si
atom  5.31135000e-01 3.90463000e+01 3.61689000e+01	N
atom  1.57054000e+00 3.67415000e+01 3.55312000e+01	N
atom  3.71021000e+00 3.72238000e+00 4.39461000e+00	N
atom  3.12381000e+00 4.26422000e+00 3.52249000e-01	N
atom  3.08977000e+00 2.65954000e+00 1.08803000e+00	Si
atom  2.38433000e+00 4.88718000e+00 4.14291000e+00	Si
atom  3.73795000e+00 2.21014000e+00 3.52250000e+00	Si
atom  3.02623000e+00 6.52876000e-01 4.06327000e+00	N
atom  2.41351000e+00 1.47612000e+00 2.61676000e-02	N
atom  2.07888000e+00 5.39291000e+00 1.12419000e+00	Si
atom  2.68106000e+00 5.75135000e+00 2.68418000e+00	N
atom  3.41572000e+00 8.33619000e+00 4.33310000e+00	N
atom  3.74783000e+00 7.07173000e+00 3.18015000e+00	Si
atom  3.52440000e+00 7.99407000e+00 3.40054000e-01	Si
atom  2.75301000e+00 9.56765000e+00 1.84415000e-01	N
atom  2.33700000e+00 9.75206000e+00 4.45907000e+00	Si
atom  2.13240000e+00 6.89768000e+00 2.38987000e-01	N
atom  2.25772000e+00 3.51952000e+00 8.56458000e+00	Si
atom  2.86230000e+00 4.17146000e+00 7.07294000e+00	N
atom  3.69637000e+00 2.95481000e+00 9.36200000e+00	N
atom  4.13105000e+00 3.58493000e+00 6.14187000e+00	Si
atom  2.23269000e+00 9.16440000e+00 8.52567000e+00	N
atom  2.29325000e+00 6.20878000e+00 5.32204000e+00	N
atom  3.45426000e+00 6.98051000e+00 7.44158000e+00	N
atom  2.22337000e+00 5.74140000e+00 7.22139000e+00	Si
atom  3.72307000e+00 7.39310000e+00 5.75315000e+00	Si
atom  3.49246000e+00 8.05173000e+00 8.80171000e+00	Si
atom  3.58362000e+00 4.77133000e+00 1.15742000e+01	N
atom  2.81162000e+00 1.63156000e+00 1.44479000e+01	N
atom  2.31576000e+00 4.97758000e+00 1.39909000e+01	N
atom  3.99273000e+00 1.64038000e+00 1.17909000e+01	N
atom  2.08627000e+00 4.44391000e+00 1.23956000e+01	Si
atom  4.18585000e+00 3.18954000e+00 1.10283000e+01	Si
atom  4.36702000e+00 1.75529000e+00 1.34445000e+01	Si
atom  3.58214000e+00 8.49221000e+00 1.34930000e+01	Si
atom  3.98080000e+00 9.68330000e+00 1.21998000e+01	N
atom  2.94092000e+00 7.05722000e+00 1.01835000e+01	N
atom  4.22938000e+00 9.49670000e+00 1.48273000e+01	N
atom  1.93893000e+00 8.04635000e+00 1.40540000e+01	N
atom  3.73220000e+00 4.30207000e+00 1.47541000e+01	Si
atom  3.35198000e+00 1.67557000e+00 1.60656000e+01	Si
atom  2.77821000e+00 1.63891000e+00 1.91278000e+01	Si
atom  3.83835000e+00 3.36391000e+00 1.62589000e+01	N
atom  3.22751000e+00 3.26459000e+00 1.89559000e+01	N
atom  2.58229000e+00 3.89641000e+00 1.73600000e+01	Si
atom  4.13370000e+00 4.73134000e+00 1.91463000e+01	Si
atom  2.11922000e+00 1.53934000e+00 1.72594000e+01	N
atom  2.01325000e+00 6.69326000e+00 1.74481000e+01	Si
atom  1.97936000e+00 1.00920000e+01 1.61507000e+01	N
atom  3.27533000e+00 7.77586000e+00 1.69063000e+01	N
atom  3.53470000e+00 9.35107000e+00 1.64063000e+01	Si
atom  3.12887000e+00 5.48534000e+00 1.78807000e+01	N
atom  3.29659000e+00 3.25459000e+00 2.28083000e+01	N
atom  3.40004000e+00 1.57491000e+00 2.09552000e+01	N
atom  2.44134000e+00 1.71095000e+00 2.24313000e+01	Si
atom  2.40545000e+00 4.66165000e+00 2.34568000e+01	Si
atom  2.97339000e+00 7.20611000e-01 2.37881000e+01	N
atom  3.45784000e+00 8.12357000e+00 2.17205000e+01	Si
atom  3.32025000e+00 8.45799000e+00 2.34315000e+01	N
atom  2.26808000e+00 9.36954000e+00 2.44444000e+01	Si
atom  2.99378000e+00 5.81968000e+00 2.45685000e+01	N
atom  4.01575000e+00 6.95323000e+00 2.39208000e+01	Si
atom  3.10727000e+00 1.34151000e+00 2.54393000e+01	Si
atom  2.81212000e+00 4.41495000e+00 2.72748000e+01	N
atom  4.01630000e+00 1.91963000e+00 2.82806000e+01	N
atom  3.01212000e+00 2.41692000e+00 2.95264000e+01	Si
atom  2.56814000e+00 5.12118000e+00 2.88279000e+01	Si
atom  4.13938000e+00 3.32515000e+00 2.72095000e+01	Si
atom  4.24043000e+00 2.56403000e+00 2.57085000e+01	N
atom  2.03704000e+00 5.11745000e+00 2.59334000e+01	Si
atom  3.95812000e+00 9.39853000e+00 2.84532000e+01	N
atom  3.17221000e+00 6.71902000e+00 2.89670000e+01	N
atom  3.55547000e+00 9.87227000e+00 2.68092000e+01	Si
atom  2.29556000e+00 8.92459000e+00 2.60615000e+01	N
atom  3.03940000e+00 1.36873000e+00 3.09325000e+01	N
atom  2.62975000e+00 4.46104000e+00 3.25784000e+01	N
atom  3.68420000e+00 1.58294000e+00 3.24765000e+01	Si
atom  2.16830000e+00 1.85210000e+00 3.33918000e+01	N
atom  3.93843000e+00 4.31397000e+00 3.14444000e+01	Si
atom  3.35522000e+00 4.01832000e+00 2.99057000e+01	N
atom  3.55041000e+00 5.85301000e+00 3.33331000e+01	Si
atom  2.98935000e+00 9.22611000e+00 3.32388000e+01	N
atom  2.29100000e+00 6.84696000e+00 3.38177000e+01	N
atom  3.91705000e+00 2.72736000e+00 3.83439000e+01	N
atom  4.13944000e+00 4.39133000e+00 3.88416000e+01	Si
atom  2.22409000e+00 2.33006000e+00 3.83961000e+01	Si
atom  3.73288000e+00 5.08452000e+00 3.72889000e+01	N
atom  2.08044000e+00 4.95044000e+00 3.68239000e+01	Si
atom  1.74411000e+00 4.46437000e+00 3.51363000e+01	N
atom  3.10005000e+00 1.23300000e+01 1.17039000e+00	N
atom  2.98861000e+00 1.42844000e+01 4.46717000e+00	Si
atom  2.21504000e+00 1.38159000e+01 1.56613000e+00	Si
atom  3.30672000e+00 1.49658000e+01 8.38289000e-01	N
atom  2.14398000e+00 1.08268000e+01 1.27984000e+00	Si
atom  1.80018000e+00 1.41489000e+01 3.22579000e+00	N
atom  1.81627000e+00 1.01960000e+01 2.84037000e+00	N
atom  3.71744000e+00 1.59260000e+01 4.52698000e+00	N
atom  3.22056000e+00 1.37953000e+01 9.66432000e+00	N
atom  2.85014000e+00 1.10224000e+01 5.55308000e+00	N
atom  2.13303000e+00 1.08033000e+01 9.16567000e+00	Si
atom  3.76793000e+00 1.11498000e+01 9.52317000e+00	N
atom  2.11624000e+00 1.37271000e+01 5.91189000e+00	N
atom  3.87143000e+00 1.67351000e+01 6.15020000e+00	Si
atom  2.08059000e+00 1.92893000e+01 7.41791000e+00	N
atom  2.33450000e+00 1.66238000e+01 6.81645000e+00	N
atom  3.77580000e+00 1.96040000e+01 6.79543000e+00	Si
atom  2.82556000e+00 1.10700000e+01 1.19578000e+01	Si
atom  3.45624000e+00 1.41260000e+01 1.13585000e+01	Si
atom  3.50400000e+00 1.26831000e+01 1.23789000e+01	N
atom  2.74409000e+00 1.48532000e+01 1.46160000e+01	N
atom  2.18894000e+00 1.26361000e+01 1.38532000e+01	Si
atom  2.19232000e+00 1.71596000e+01 1.09279000e+01	Si
atom  2.72734000e+00 1.57461000e+01 1.17278000e+01	N
atom  2.62859000e+00 1.86249000e+01 1.42408000e+01	N
atom  3.53311000e+00 1.83821000e+01 1.08320000e+01	N
atom  2.31487000e+00 1.95880000e+01 1.12026000e+01	Si
atom  3.43271000e+00 1.21389000e+01 1.50556000e+01	N
atom  2.37560000e+00 1.38960000e+01 1.88369000e+01	Si
atom  2.55583000e+00 1.23075000e+01 1.79731000e+01	N
atom  3.11458000e+00 1.08116000e+01 1.87414000e+01	Si
atom  2.23825000e+00 1.18759000e+01 1.62759000e+01	Si
atom  3.37482000e+00 1.51967000e+01 1.94914000e+01	N
atom  2.70748000e+00 1.52666000e+01 1.63549000e+01	Si
atom  2.46886000e+00 1.69579000e+01 1.63748000e+01	N
atom  3.56542000e+00 1.77333000e+01 1.53059000e+01	Si
atom  3.11048000e+00 1.69797000e+01 1.97209000e+01	Si
atom  3.39100000e+00 1.32667000e+01 2.23141000e+01	N
atom  2.55489000e+00 1.21987000e+01 2.11478000e+01	Si
atom  2.57380000e+00 1.10672000e+01 2.41490000e+01	N
atom  3.77193000e+00 1.14303000e+01 2.02101000e+01	N
atom  2.29453000e+00 1.39498000e+01 2.34156000e+01	Si
atom  2.85696000e+00 1.70090000e+01 2.28723000e+01	Si
atom  3.04057000e+00 1.76629000e+01 2.12787000e+01	N
atom  2.77820000e+00 1.97078000e+01 2.39378000e+01	Si
atom  4.06222000e+00 1.91276000e+01 2.14617000e+01	Si
atom  1.97778000e+00 1.56628000e+01 2.34909000e+01	N
atom  2.99815000e+00 1.37142000e+01 2.50152000e+01	N
atom  3.76825000e+00 1.21807000e+01 2.91499000e+01	N
atom  2.48766000e+00 1.42897000e+01 2.77402000e+01	N
atom  3.00853000e+00 1.15167000e+01 2.67342000e+01	N
atom  2.41338000e+00 1.25606000e+01 2.80706000e+01	Si
atom  3.48073000e+00 1.20866000e+01 2.51756000e+01	Si
atom  2.44082000e+00 1.49050000e+01 2.61054000e+01	Si
atom  3.13669000e+00 1.95594000e+01 2.55602000e+01	N
atom  2.71143000e+00 1.66878000e+01 2.59113000e+01	N
atom  3.95110000e+00 1.79844000e+01 2.93019000e+01	Si
atom  3.71992000e+00 1.80605000e+01 2.62907000e+01	Si
atom  3.68896000e+00 1.88197000e+01 2.78100000e+01	N
atom  2.47058000e+00 1.55911000e+01 2.88409000e+01	Si
atom  4.01610000e+00 1.63145000e+01 2.89439000e+01	N
atom  2.68413000e+00 1.09687000e+01 3.33059000e+01	Si
atom  2.71921000e+00 1.13277000e+01 3.15192000e+01	N
atom  2.64199000e+00 1.46143000e+01 3.33410000e+01	N
atom  2.25453000e+00 1.42232000e+01 3.16325000e+01	Si
atom  3.92287000e+00 1.37199000e+01 3.14095000e+01	N
atom  2.51348000e+00 1.83629000e+01 3.01373000e+01	N
atom  2.77078000e+00 1.74225000e+01 3.44685000e+01	Si
atom  2.42031000e+00 1.91258000e+01 3.17420000e+01	Si
atom  2.30731000e+00 1.79060000e+01 3.28656000e+01	N
atom  2.20673000e+00 1.48957000e+01 3.81177000e+01	N
atom  3.45015000e+00 1.27381000e+01 3.61799000e+01	N
atom  3.50567000e+00 1.41341000e+01 3.73045000e+01	Si
atom  2.54964000e+00 1.10663000e+01 3.76568000e+01	N
atom  4.19944000e+00 1.15950000e+01 3.75926000e+01	Si
atom  2.14836000e+00 1.95198000e+01 3.65747000e+01	Si
atom  2.47330000e+00 1.59325000e+01 3.95037000e+01	Si
atom  3.39893000e+00 1.73748000e+01 3.92065000e+01	N
atom  3.15507000e+00 1.88418000e+01 3.53428000e+01	N
atom  2.91828000e+00 1.89318000e+01 3.95670000e+01	Si
atom  2.89174000e+00 1.98241000e+01 3.80438000e+01	N
atom  2.65490000e+00 2.12084000e+01 3.13966000e+00	N
atom  2.47523000e+00 2.43762000e+01 3.97075000e+00	Si
atom  2.39119000e+00 2.21103000e+01 4.91608000e-01	N
atom  3.81789000e+00 2.18433000e+01 4.21806000e+00	Si
atom  2.62957000e+00 2.49632000e+01 2.37583000e+00	N
atom  4.01877000e+00 2.27457000e+01 9.75850000e-02	Si
atom  3.81608000e+00 2.35017000e+01 4.65657000e+00	N
atom  4.16083000e+00 2.44528000e+01 1.07294000e-01	N
atom  4.09297000e+00 2.54232000e+01 1.52390000e+00	Si
atom  3.27015000e+00 2.82318000e+01 2.15537000e+00	Si
atom  2.74755000e+00 2.90449000e+01 7.02828000e-01	N
atom  2.44765000e+00 2.25021000e+01 8.39244000e+00	N
atom  2.31854000e+00 2.07417000e+01 8.38467000e+00	Si
atom  3.39400000e+00 2.32320000e+01 9.64929000e+00	Si
atom  3.94621000e+00 2.08013000e+01 5.58560000e+00	N
atom  4.12425000e+00 2.04481000e+01 8.19934000e+00	N
atom  2.59497000e+00 2.84316000e+01 5.63797000e+00	N
atom  2.63109000e+00 2.58771000e+01 8.23041000e+00	N
atom  2.95874000e+00 2.97612000e+01 7.61191000e+00	N
atom  3.88713000e+00 2.94780000e+01 6.18979000e+00	Si
atom  2.05531000e+00 2.67522000e+01 9.61267000e+00	Si
atom  1.90566000e+00 2.56089000e+01 5.03208000e+00	N
atom  2.76082000e+00 2.96273000e+01 9.35149000e+00	Si
atom  3.21420000e+00 2.22288000e+01 1.18597000e+01	Si
atom  2.59333000e+00 2.07652000e+01 1.23694000e+01	N
atom  2.30702000e+00 2.35040000e+01 1.10048000e+01	N
atom  4.04752000e+00 2.29599000e+01 1.31833000e+01	N
atom  2.89802000e+00 2.03161000e+01 1.40356000e+01	Si
atom  4.12387000e+00 2.18980000e+01 1.04137000e+01	N
atom  4.21113000e+00 2.45824000e+01 1.38806000e+01	Si
atom  3.13800000e+00 2.69916000e+01 1.26561000e+01	Si
atom  3.26226000e+00 2.69772000e+01 1.09225000e+01	N
atom  3.28496000e+00 2.83140000e+01 1.37343000e+01	N
atom  2.13202000e+00 2.94645000e+01 1.44297000e+01	Si
atom  4.33433000e+00 2.92387000e+01 1.00106000e+01	N
atom  2.97574000e+00 2.48326000e+01 1.50494000e+01	N
atom  3.61221000e+00 2.14413000e+01 1.95227000e+01	Si
atom  3.48810000e+00 2.38336000e+01 1.64153000e+01	Si
atom  1.97057000e+00 2.17878000e+01 1.91435000e+01	N
atom  1.97238000e+00 2.32259000e+01 1.69040000e+01	N
atom  2.12782000e+00 2.75580000e+01 1.67342000e+01	Si
atom  3.56455000e+00 2.80045000e+01 1.93686000e+01	Si
atom  2.19303000e+00 2.74044000e+01 1.84594000e+01	N
atom  2.16586000e+00 2.92793000e+01 1.61789000e+01	N