lattice_vector  3.99259638e+01 0.00000000e+00 0.00000000e+00
lattice_vector  2.44476019e-15 3.99259638e+01 0.00000000e+00
lattice_vector  2.44476019e-15 2.44476019e-15 3.99259638e+01
atom  3.33456000e+00 4.60165000e+00 1.08825000e+00	Si
atom  1.64440000e+00 4.10593000e+00 1.31782000e+00	N
atom  2.59688000e-01 6.73483000e-01 1.67500000e+00	N
atom  9.22475000e-01 2.47027000e+00 1.48230000e+00	Si
atom  4.59578000e+00 3.46043000e+00 1.74334000e+00	N
atom  8.41445000e+00 2.63717000e+00 6.62704000e-01	Si
atom  7.45551000e+00 2.85616000e+00 2.04925000e+00	N
atom  2.85602000e-01 5.21215000e+00 1.02581000e+00	Si
atom  2.59558000e+00 7.45138000e+00 1.07774000e+00	Si
atom  1.12496000e+00 6.61166000e+00 5.19437000e-01	N
atom  3.76519000e+00 6.20505000e+00 1.53462000e+00	N
atom  4.37252000e-01 9.17850000e+00 2.87970000e-02	N
atom  8.46209000e+00 6.58021000e+00 1.25255000e+00	N
atom  9.11339000e+00 7.84896000e+00 2.75983000e-01	Si
atom  9.43136000e+00 5.40556000e+00 5.49037000e-01	Si
atom  1.65121000e-01 4.71085000e+00 3.76414000e+00	Si
atom  4.13045000e+00 5.02286000e+00 4.10656000e+00	N
atom  4.23673000e+00 2.12174000e+00 4.10543000e+00	N
atom  2.33522000e+00 1.76717000e+00 2.42656000e+00	N
atom  -2.00048000e-01 3.19896000e+00 2.76237000e+00	N
atom  4.14403000e+00 1.88288000e+00 2.37840000e+00	Si
atom  2.48736000e+00 1.90978000e+00 4.25166000e+00	Si
atom  7.85301000e+00 2.46028000e+00 3.74792000e+00	Si
atom  6.51094000e+00 3.52089000e+00 4.20765000e+00	N
atom  6.18039000e+00 3.99485000e+00 2.50334000e+00	Si
atom  9.45482000e+00 2.91799000e+00 4.33256000e+00	N
atom  7.23907000e+00 9.25104000e-01 4.44611000e+00	N
atom  1.39996000e+00 7.52479000e+00 3.86493000e+00	Si
atom  2.36672000e+00 8.20049000e+00 2.59946000e+00	N
atom  3.49458000e+00 8.80971000e+00 3.77991000e+00	Si
atom  1.39457000e+00 5.89050000e+00 4.19530000e+00	N
atom  -1.45992000e-01 8.11754000e+00 4.20897000e+00	N
atom  9.21096000e+00 8.56546000e+00 4.38938000e+00	Si
atom  5.01062000e+00 8.04985000e+00 3.50241000e+00	N
atom  8.83211000e+00 5.64392000e+00 4.02573000e+00	N
atom  4.78053000e+00 6.35175000e+00 2.99269000e+00	Si
atom  6.35972000e+00 5.66408000e+00 2.66648000e+00	N
atom  7.85484000e+00 6.51563000e+00 2.89336000e+00	Si
atom  6.36797000e+00 9.13361000e+00 3.78941000e+00	Si
atom  7.78337000e+00 8.17610000e+00 3.58738000e+00	N
atom  9.38817000e-02 2.94119000e+00 5.76220000e+00	Si
atom  2.54908000e+00 4.87861000e+00 4.94086000e+00	Si
atom  1.68440000e+00 3.37500000e+00 4.93505000e+00	N
atom  2.19358000e+00 5.29759000e-01 5.27587000e+00	N
atom  5.49882000e+00 1.39139000e+00 6.43446000e+00	N
atom  4.92563000e+00 3.62708000e+00 4.91402000e+00	Si
atom  4.84265000e+00 3.87437000e+00 6.62838000e+00	N
atom  5.51861000e+00 1.01415000e+00 4.77166000e+00	Si
atom  2.30491000e+00 7.30943000e+00 6.60495000e+00	Si
atom  2.56345000e+00 8.18169000e+00 5.08425000e+00	N
atom  2.94189000e+00 5.76671000e+00 6.45309000e+00	N
atom  6.95203000e+00 5.76510000e+00 5.89619000e+00	N
atom  9.28613000e+00 7.69657000e+00 5.87909000e+00	N
atom  6.02109000e+00 9.71898000e+00 5.44203000e+00	N
atom  8.64469000e+00 6.07396000e+00 5.66547000e+00	Si
atom  1.96165000e+00 2.90831000e+00 8.44514000e+00	Si
atom  2.74884000e+00 4.41213000e+00 8.73076000e+00	N
atom  3.25276000e+00 1.79978000e+00 8.09960000e+00	N
atom  -1.49168000e-01 1.64831000e+00 8.31717000e+00	Si
atom  6.42562000e-01 2.94972000e+00 7.37080000e+00	N
atom  3.87034000e+00 5.01826000e+00 7.62407000e+00	Si
atom  4.75233000e+00 2.47869000e+00 7.58774000e+00	Si
atom  7.63103000e+00 8.90804000e-01 8.15663000e+00	N
atom  7.54622000e+00 4.12869000e+00 8.19278000e+00	N
atom  7.34180000e+00 2.57833000e+00 8.81403000e+00	Si
atom  6.35501000e+00 4.78297000e+00 7.14204000e+00	Si
atom  5.61074000e+00 2.83638000e+00 9.10861000e+00	N
atom  8.87607000e+00 5.20901000e+00 8.30307000e+00	Si
atom  2.99333000e+00 8.13179000e+00 8.02262000e+00	N
atom  8.38242000e-01 6.98971000e+00 7.51783000e+00	N
atom  4.21798000e+00 8.95991000e+00 8.82297000e+00	Si
atom  1.43769000e+00 7.81277000e+00 9.05196000e+00	Si
atom  -4.00795000e-01 9.98878000e+00 8.09541000e+00	Si
atom  8.12176000e+00 6.84280000e+00 8.23305000e+00	N
atom  8.32300000e+00 9.66983000e+00 7.27006000e+00	N
atom  6.51030000e+00 7.02757000e+00 8.65115000e+00	Si
atom  6.55708000e+00 9.76254000e+00 7.16440000e+00	Si
atom  5.30464000e+00 5.82793000e+00 8.16966000e+00	N
atom  9.06825000e+00 8.09113000e+00 7.51673000e+00	Si
atom  5.79434000e+00 8.53787000e+00 8.05905000e+00	N
atom  4.05806000e+00 1.44819000e+00 1.08519000e+01	N
atom  9.29215000e-01 4.33632000e+00 1.12105000e+01	N
atom  2.39500000e+00 4.90741000e+00 1.03911000e+01	Si
atom  1.15833000e+00 2.48402000e+00 1.12843000e+01	Si
atom  1.00085000e+00 2.03064000e+00 9.60639000e+00	N
atom  3.87195000e+00 4.31283000e+00 1.12024000e+01	N
atom  3.66863000e+00 7.50068000e-01 9.39118000e+00	Si
atom  4.87097000e+00 3.02195000e+00 1.06789000e+01	Si
atom  8.36528000e+00 2.14099000e+00 1.01599000e+01	N
atom  8.59447000e+00 3.24005000e-01 9.47911000e+00	Si
atom  1.92457000e+00 9.22807000e+00 1.02126000e+01	N
atom  2.16439000e+00 6.62899000e+00 1.02391000e+01	N
atom  2.93877000e+00 7.86336000e+00 1.13516000e+01	Si
atom  4.35321000e+00 8.43505000e+00 1.04382000e+01	N
atom  8.93518000e+00 8.85712000e+00 1.04934000e+01	N
atom  5.42833000e+00 7.52596000e+00 1.15153000e+01	Si
atom  7.87647000e+00 7.77412000e+00 1.13049000e+01	Si
atom  6.64840000e+00 7.05978000e+00 1.03590000e+01	N
atom  2.30470000e+00 2.39386000e+00 1.25596000e+01	N
atom  3.49062000e+00 1.20933000e+00 1.25180000e+01	Si
atom  3.69582000e-01 4.88116000e+00 1.27850000e+01	Si
atom  2.04777000e+00 5.11811000e+00 1.33518000e+01	N
atom  2.95361000e-01 3.36142000e+00 1.37738000e+01	N
atom  3.72054000e+00 5.28671000e+00 1.28049000e+01	Si
atom  8.49861000e+00 3.91252000e+00 1.38279000e+01	Si
atom  4.63880000e+00 1.62623000e+00 1.37384000e+01	N
atom  5.73814000e+00 2.99299000e+00 1.34877000e+01	Si
atom  8.90458000e+00 3.34130000e+00 1.22092000e+01	N
atom  7.88457000e+00 9.13699000e-01 1.27762000e+01	N
atom  6.14139000e+00 2.98586000e+00 1.18372000e+01	N
atom  7.63472000e+00 2.19425000e+00 1.17132000e+01	Si
atom  4.87914000e+00 4.41413000e+00 1.37869000e+01	N
atom  2.15982000e+00 8.69983000e+00 1.26813000e+01	N
atom  4.06910000e+00 6.86514000e+00 1.23105000e+01	N
atom  -3.43727000e-01 8.22890000e+00 1.18461000e+01	N
atom  9.23193000e-01 9.37655000e+00 1.15800000e+01	Si
atom  9.00633000e+00 6.78129000e+00 1.36757000e+01	Si
atom  6.60283000e+00 8.18599000e+00 1.24943000e+01	N
atom  8.88650000e+00 6.57349000e+00 1.19954000e+01	N
atom  3.05589000e+00 3.26038000e+00 1.53021000e+01	N
atom  4.07354000e+00 1.86336000e+00 1.54057000e+01	Si
atom  4.23440000e+00 4.61379000e+00 1.54729000e+01	Si
atom  1.15705000e+00 5.07516000e+00 1.59885000e+01	N
atom  -5.30955000e-02 5.50689000e-01 1.42138000e+01	N
atom  3.11702000e+00 4.79844000e-01 1.57954000e+01	N
atom  1.97502000e+00 3.40567000e+00 1.39368000e+01	Si
atom  7.22599000e+00 2.91325000e+00 1.44744000e+01	N
atom  7.98284000e+00 1.12908000e+00 1.44944000e+01	Si
atom  6.70158000e+00 3.50232000e+00 1.61223000e+01	Si
atom  5.80439000e+00 5.01980000e+00 1.62332000e+01	N
atom  1.99346000e+00 9.09116000e+00 1.43720000e+01	Si
atom  4.23782000e+00 7.65509000e+00 1.56925000e+01	Si
atom  1.31399000e+00 7.71601000e+00 1.52611000e+01	N
atom  1.82184000e+00 6.15790000e+00 1.48407000e+01	Si
atom  3.54428000e+00 6.14676000e+00 1.51402000e+01	N
atom  3.52877000e+00 9.13426000e+00 1.51710000e+01	N
atom  6.08331000e-01 1.01529000e+01 1.40613000e+01	N
atom  5.98653000e+00 1.02547000e+01 1.40709000e+01	N
atom  6.88558000e+00 6.20547000e+00 1.53422000e+01	Si
atom  8.35925000e+00 8.15198000e+00 1.46033000e+01	N
atom  6.80747000e+00 8.74450000e+00 1.40884000e+01	Si
atom  7.88375000e+00 5.49303000e+00 1.41545000e+01	N
atom  8.63497000e+00 8.18975000e+00 1.62978000e+01	Si
atom  5.85231000e+00 7.60024000e+00 1.50293000e+01	N
atom  1.29247000e+00 2.71031000e+00 1.75089000e+01	N
atom  9.68386000e-01 1.14472000e+00 1.81354000e+01	Si
atom  3.57282000e+00 4.69906000e+00 1.73622000e+01	N
atom  2.18315000e+00 3.95821000e+00 1.67178000e+01	Si
atom  -4.25171000e-01 4.89789000e+00 1.84074000e+01	N
atom  7.50828000e+00 1.34642000e+00 1.80458000e+01	N
atom  6.17826000e+00 8.64711000e-01 1.70564000e+01	Si
atom  8.02335000e+00 3.95925000e+00 1.71052000e+01	N
atom  8.23072000e+00 2.89254000e+00 1.84878000e+01	Si
atom  5.42324000e+00 2.24762000e+00 1.63767000e+01	N
atom  4.70793000e-01 1.02342000e+01 1.80442000e+01	Si
atom  -1.98960000e-01 9.38182000e+00 1.67418000e+01	N
atom  1.25513000e+00 7.23375000e+00 1.81346000e+01	N
atom  2.11584000e+00 9.76029000e+00 1.80301000e+01	N
atom  4.10878000e+00 7.48859000e+00 1.73912000e+01	N
atom  2.72094000e+00 8.16325000e+00 1.83810000e+01	Si
atom  3.43333000e-01 7.75051000e+00 1.67506000e+01	Si
atom  8.81865000e+00 5.42982000e+00 1.74730000e+01	Si
atom  4.83089000e+00 5.85857000e+00 1.76122000e+01	Si
atom  7.82332000e+00 9.32433000e+00 1.73800000e+01	N
atom  7.97252000e+00 6.62295000e+00 1.66337000e+01	N
atom  2.15867000e+00 9.93470000e-01 1.93392000e+01	N
atom  1.11502000e+00 3.45636000e+00 2.03930000e+01	N
atom  3.96498000e+00 6.91593000e-01 1.92456000e+01	Si
atom  2.48307000e-01 3.36858000e+00 1.88524000e+01	Si
atom  1.71547000e+00 1.90407000e+00 2.09066000e+01	Si
atom  4.55781000e+00 2.26463000e+00 1.94485000e+01	N
atom  7.88779000e+00 6.74361000e-01 1.96302000e+01	Si
atom  7.16099000e+00 3.57344000e+00 1.96540000e+01	N
atom  5.90039000e+00 2.65416000e+00 2.04493000e+01	Si
atom  9.21479000e+00 1.43988000e+00 2.03729000e+01	N
atom  7.27357000e+00 5.26700000e+00 1.96948000e+01	Si
atom  6.58266000e+00 1.08324000e+00 2.07221000e+01	N
atom  6.83985000e-02 9.66619000e+00 1.96680000e+01	N
atom  3.06969000e-01 6.30127000e+00 1.92722000e+01	Si
atom  3.30412000e+00 7.95085000e+00 1.99680000e+01	N
atom  1.41985000e+00 5.97151000e+00 2.06089000e+01	N
atom  2.83628000e+00 6.83061000e+00 2.12362000e+01	Si
atom  4.41715000e+00 9.26408000e+00 2.03691000e+01	Si
atom  8.86263000e+00 8.74779000e+00 1.97569000e+01	N
atom  6.04471000e+00 8.48817000e+00 2.00943000e+01	N
atom  5.64724000e+00 6.86347000e+00 2.04372000e+01	Si
atom  5.80358000e+00 5.89162000e+00 1.90660000e+01	N
atom  8.60388000e+00 6.08244000e+00 1.90907000e+01	N
atom  7.28608000e+00 9.12382000e+00 1.90402000e+01	Si
atom  2.61340000e+00 2.34660000e+00 2.22855000e+01	N
atom  6.67638000e-01 4.74369000e+00 2.15519000e+01	Si
atom  2.31712000e-01 1.21809000e+00 2.14952000e+01	N
atom  4.30482000e+00 2.61001000e+00 2.28295000e+01	Si
atom  1.38760000e+00 4.79584000e+00 2.31021000e+01	N
atom  5.36056000e+00 3.46074000e+00 2.18450000e+01	N
atom  5.06413000e+00 1.08282000e+00 2.32002000e+01	N
atom  8.79327000e+00 4.63525000e-01 2.30027000e+01	N
atom  5.73279000e+00 5.10521000e+00 2.22911000e+01	Si
atom  4.09743000e+00 9.68095000e+00 2.20861000e+01	N
atom  2.29169000e+00 7.50571000e+00 2.27314000e+01	N
atom  4.47574000e+00 6.23053000e+00 2.15755000e+01	N
atom  1.37585000e+00 1.03609000e+01 2.23381000e+01	N
atom  -2.82113000e-01 6.90403000e+00 2.32551000e+01	N
atom  3.39276000e+00 8.62516000e+00 2.33911000e+01	Si
atom  9.13201000e+00 5.33321000e+00 2.32190000e+01	N
atom  7.02010000e+00 6.02564000e+00 2.12672000e+01	N
atom  7.52045000e+00 7.91212000e+00 2.33044000e+01	N
atom  8.32790000e+00 6.61205000e+00 2.22653000e+01	Si
atom  1.68126000e+00 2.16561000e+00 2.49874000e+01	N
atom  3.74684000e+00 3.58055000e+00 2.42117000e+01	N
atom  1.60102000e-01 1.34157000e+00 2.46933000e+01	Si
atom  2.09314000e+00 3.27992000e+00 2.36935000e+01	Si
atom  8.25845000e+00 2.88548000e+00 2.44168000e+01	N
atom  7.92168000e+00 4.62971000e+00 2.43201000e+01	Si
atom  6.88396000e+00 8.90823000e-01 2.54261000e+01	N
atom  5.29498000e+00 4.62704000e-01 2.48018000e+01	Si
atom  9.47844000e+00 1.94257000e+00 2.36266000e+01	Si
atom  7.24624000e+00 2.49621000e+00 2.57978000e+01	Si
atom  1.26715000e+00 6.43595000e+00 2.37916000e+01	Si
atom  2.29521000e+00 6.93266000e+00 2.52010000e+01	N
atom  2.91466000e+00 9.59826000e+00 2.47697000e+01	N
atom  4.42852000e+00 9.89224000e+00 2.55519000e+01	Si
atom  6.24528000e+00 7.14027000e+00 2.41977000e+01	Si
atom  7.95677000e+00 9.57034000e+00 2.35196000e+01	Si
atom  6.50490000e+00 5.44390000e+00 2.38161000e+01	N
atom  7.97395000e+00 9.68269000e+00 2.54626000e+01	N
atom  4.68718000e+00 7.77041000e+00 2.42189000e+01	N
atom  3.46942000e+00 3.23579000e+00 2.70455000e+01	N
atom  2.73090000e+00 1.66915000e+00 2.63854000e+01	Si
atom  1.46378000e+00 1.37756000e+00 2.74925000e+01	N
atom  4.12545000e+00 7.00867000e-01 2.62392000e+01	N
atom  -2.61622000e-01 4.96090000e+00 2.72592000e+01	Si
atom  4.34954000e+00 4.04511000e+00 2.57175000e+01	Si
atom  7.72268000e+00 2.35861000e+00 2.75255000e+01	N
atom  9.17222000e+00 1.47643000e+00 2.78948000e+01	Si
atom  8.23398000e+00 5.02983000e+00 2.59821000e+01	N
atom  5.96275000e+00 3.66725000e+00 2.59534000e+01	N
atom  1.73127000e+00 1.00935000e+01 2.61296000e+01	Si
atom  1.13832000e+00 7.14322000e+00 2.65831000e+01	Si
atom  5.44679000e-01 8.80074000e+00 2.63508000e+01	N
atom  2.59569000e+00 6.81163000e+00 2.76671000e+01	N
atom  6.86418000e-03 5.98886000e+00 2.57215000e+01	N
atom  4.13488000e+00 6.08897000e+00 2.80350000e+01	Si
atom  3.86848000e+00 7.28738000e+00 2.57542000e+01	Si
atom  7.25424000e+00 8.51614000e+00 2.80302000e+01	N
atom  8.00647000e+00 8.24149000e+00 2.64834000e+01	Si
atom  6.78074000e+00 7.07262000e+00 2.58663000e+01	N
atom  4.49355000e+00 8.57517000e+00 2.66905000e+01	N
atom  4.60630000e+00 5.72636000e+00 2.64214000e+01	N
atom  6.60156000e+00 5.37500000e+00 2.65052000e+01	Si
atom  5.54506000e+00 8.54825000e+00 2.80564000e+01	Si
atom  3.86226000e+00 3.37910000e+00 2.87655000e+01	Si
atom  2.65689000e+00 2.54361000e+00 2.96561000e+01	N
atom  1.24720000e+00 2.62079000e+00 2.87110000e+01	Si
atom  3.37785000e+00 4.99279000e+00 2.92318000e+01	N
atom  3.51437000e-02 2.07420000e+00 2.99047000e+01	N
atom  1.02126000e+00 4.27472000e+00 2.82535000e+01	N
atom  5.41379000e+00 2.60344000e+00 2.92447000e+01	N
atom  6.93517000e+00 3.39469000e+00 2.86565000e+01	Si
atom  7.80754000e+00 3.33784000e+00 3.01113000e+01	N
atom  9.37276000e+00 9.51545000e-01 2.95014000e+01	N
atom  6.70566000e+00 4.99732000e+00 2.81586000e+01	N
atom  1.73837000e+00 5.81017000e+00 2.88538000e+01	Si
atom  8.30527000e-01 9.49722000e+00 3.01816000e+01	N
atom  2.71193000e-01 6.59446000e+00 2.81914000e+01	N
atom  8.29042000e+00 1.03213000e+01 2.98758000e+01	N
atom  6.51685000e+00 6.03351000e+00 2.94683000e+01	Si
atom  7.95507000e+00 8.48007000e+00 2.96936000e+01	Si
atom  5.10193000e+00 7.10660000e+00 2.90799000e+01	N
atom  5.03434000e+00 1.00454000e+01 2.88967000e+01	N
atom  7.86398000e+00 6.81507000e+00 3.01277000e+01	N
atom  2.63096000e+00 4.72893000e+00 3.19825000e+01	N
atom  -3.14223000e-02 4.86897000e+00 3.11894000e+01	N
atom  2.83400000e+00 1.36277000e+00 3.09086000e+01	Si
atom  2.46789000e+00 1.88780000e+00 3.25004000e+01	N
atom  4.28765000e+00 5.29277000e-01 3.09436000e+01	N
atom  3.94395000e+00 5.36421000e+00 3.09263000e+01	Si
atom  8.81712000e+00 1.81794000e+00 3.21327000e+01	N
atom  6.69636000e+00 3.96726000e+00 3.13867000e+01	Si
atom  5.82129000e+00 2.62626000e+00 3.19766000e+01	N
atom  5.69959000e+00 1.46385000e+00 3.05395000e+01	Si
atom  9.27385000e+00 2.35059000e+00 3.05822000e+01	Si
atom  9.43542000e+00 5.40599000e+00 3.21408000e+01	N
atom  5.63431000e+00 4.95910000e+00 3.05350000e+01	N
atom  1.27549000e+00 5.78709000e+00 3.18515000e+01	Si
atom  1.98201000e+00 8.40311000e+00 3.08131000e+01	Si
atom  1.98174000e+00 8.31004000e+00 3.25490000e+01	N
atom  3.62632000e+00 9.05387000e+00 3.07620000e+01	N
atom  3.23183000e+00 9.58625000e+00 3.26664000e+01	Si
atom  1.78690000e+00 6.69969000e+00 3.04137000e+01	N
atom  5.17660000e+00 1.02356000e+01 3.06149000e+01	Si
atom  4.44675000e+00 6.73371000e+00 3.19456000e+01	N
atom  6.33252000e+00 8.74236000e+00 3.08852000e+01	N
atom  9.28376000e+00 6.78762000e+00 3.11453000e+01	Si
atom  8.78858000e+00 8.31256000e+00 3.19673000e+01	N
atom  4.87247000e+00 7.80747000e+00 3.06446000e+01	Si
atom  7.25639000e+00 8.96008000e+00 3.23556000e+01	Si
atom  1.31802000e+00 3.38604000e+00 3.44249000e+01	N
atom  4.01279000e+00 3.64635000e+00 3.39485000e+01	N
atom  2.52558000e+00 3.51465000e+00 3.31447000e+01	Si
atom  4.85914000e-01 4.85461000e+00 3.47926000e+01	Si
atom  2.03083000e+00 6.63320000e-01 3.35683000e+01	Si
atom  8.76119000e+00 1.92822000e+00 3.38048000e+01	Si
atom  5.23394000e+00 2.49745000e+00 3.36279000e+01	Si
atom  8.89947000e+00 3.48743000e+00 3.43874000e+01	N
atom  5.29155000e+00 7.84550000e-01 3.36789000e+01	N
atom  8.54189000e+00 5.06850000e+00 3.35681000e+01	Si
atom  7.76711000e+00 1.01594000e+00 3.50188000e+01	N
atom  6.95605000e+00 5.12353000e+00 3.27449000e+01	N
atom  7.75242000e-01 6.18459000e+00 3.34962000e+01	N
atom  1.01244000e+00 7.84924000e+00 3.39050000e+01	Si
atom  9.46655000e-03 9.31068000e+00 3.38715000e+01	N
atom  3.87200000e+00 9.31143000e+00 3.42535000e+01	N
atom  6.36232000e+00 8.12429000e+00 3.35713000e+01	N
atom  6.80207000e+00 7.23169000e+00 3.50628000e+01	Si
atom  8.17163000e+00 6.28952000e+00 3.47988000e+01	N
atom  5.43200000e+00 5.99494000e+00 3.47811000e+01	N
atom  9.41757000e+00 8.80393000e+00 3.46947000e+01	N
atom  5.75930000e+00 6.38663000e+00 3.30452000e+01	Si
atom  5.51379000e+00 9.77062000e+00 3.38716000e+01	Si
atom  1.51196000e+00 2.39559000e+00 3.58576000e+01	Si
atom  1.33447000e-01 1.53702000e+00 3.64522000e+01	N
atom  4.13634000e+00 4.64821000e+00 3.67444000e+01	N
atom  2.17388000e+00 2.93079000e+00 3.73737000e+01	N
atom  2.46570000e+00 4.69182000e+00 3.74755000e+01	Si
atom  1.08313000e+00 5.19877000e+00 3.63565000e+01	N
atom  2.46477000e+00 1.16741000e+00 3.51790000e+01	N
atom  6.13777000e+00 1.28064000e+00 3.72682000e+01	N
atom  7.02877000e+00 2.20889000e+00 3.60931000e+01	Si
atom  8.23130000e+00 3.16214000e+00 3.69476000e+01	N
atom  4.86590000e+00 4.41028000e+00 3.52432000e+01	Si
atom  6.05571000e+00 3.12905000e+00 3.50787000e+01	N
atom  2.93080000e+00 9.00387000e+00 3.56864000e+01	Si
atom  1.31534000e+00 6.86216000e+00 3.68922000e+01	Si
atom  3.97492000e+00 8.59189000e+00 3.69319000e+01	N
atom  1.73173000e+00 7.75880000e+00 3.55100000e+01	N
atom  5.52182000e+00 9.32843000e+00 3.68435000e+01	Si
atom  9.16012000e+00 6.38749000e+00 3.63019000e+01	Si
atom  6.66747000e+00 8.05363000e+00 3.65691000e+01	N
atom  2.77425000e+00 2.52431000e+00 3.89812000e+01	Si
atom  3.40893000e+00 4.29913000e+00 3.92202000e+01	N
atom  7.53677000e-02 1.48265000e+00 3.82415000e+01	Si
atom  4.23425000e+00 1.60249000e+00 3.92758000e+01	N
atom  1.22646000e+00 2.04314000e+00 3.96351000e+01	N
atom  4.81494000e+00 4.83398000e+00 3.82646000e+01	Si
atom  6.15129000e+00 3.85365000e+00 3.87324000e+01	N
atom  7.79748000e+00 4.28067000e+00 3.81984000e+01	Si
atom  5.94891000e+00 2.03720000e+00 3.88317000e+01	Si
atom  7.51758000e+00 1.48629000e+00 3.95924000e+01	N
atom  8.77972000e+00 4.09931000e+00 3.96103000e+01	N
atom  3.83244000e+00 7.54476000e+00 3.83212000e+01	Si
atom  2.59837000e+00 6.42967000e+00 3.78877000e+01	N
atom  -2.97254000e-02 7.46528000e+00 3.77445000e+01	N
atom  -9.16462000e-02 7.62195000e+00 3.95057000e+01	Si
atom  4.15989000e+00 9.89176000e+00 3.95874000e+01	Si
atom  3.44221000e+00 8.36014000e+00 3.98463000e+01	N
atom  5.29234000e+00 6.50691000e+00 3.84872000e+01	N
atom  7.90216000e+00 5.88884000e+00 3.74718000e+01	N
atom  6.87862000e+00 7.10550000e+00 3.81197000e+01	Si
atom  7.88496000e+00 8.23266000e+00 3.91077000e+01	N
atom  7.31038000e+00 9.81102000e+00 3.87728000e+01	Si
atom  5.58434000e+00 9.62634000e+00 3.85616000e+01	N
atom  3.61198000e+00 1.41941000e+01 1.68124000e+00	Si
atom  2.86603000e+00 1.33450000e+01 3.27680000e-01	N
atom  2.09155000e+00 1.18732000e+01 2.84311000e-01	Si
atom  -1.80103000e-01 1.48197000e+01 1.48106000e+00	N
atom  2.99186000e-01 1.21622000e+01 4.04018000e-01	N
atom  2.13068000e+00 1.12715000e+01 1.90657000e+00	N
atom  5.08995000e-01 1.18333000e+01 2.20037000e+00	Si
atom  4.81535000e+00 1.07467000e+01 1.04741000e+00	N
atom  6.47581000e+00 1.13008000e+01 1.30343000e+00	Si
atom  6.50321000e+00 1.30110000e+01 1.23226000e+00	N
atom  7.69221000e+00 1.07949000e+01 1.92912000e-01	N
atom  5.00795000e+00 1.51628000e+01 1.09304000e+00	N
atom  9.28312000e+00 1.18583000e+01 2.07322000e+00	N
atom  9.35429000e+00 1.09383000e+01 5.63945000e-01	Si
atom  5.85731000e+00 1.41087000e+01 -8.61789000e-02	Si
atom  2.03767000e+00 2.01993000e+01 9.46786000e-01	Si
atom  5.93415000e-01 1.94474000e+01 4.78344000e-01	N
atom  1.30636000e+00 1.58221000e+01 1.40380000e+00	Si
atom  -2.46479000e-01 1.79880000e+01 8.54690000e-01	Si
atom  4.39429000e+00 1.92652000e+01 1.12475000e+00	Si
atom  8.51159000e-01 1.72864000e+01 2.14655000e+00	N
atom  2.96766000e+00 1.91018000e+01 2.10690000e+00	N
atom  2.44145000e+00 1.59635000e+01 6.84975000e-02	N
atom  7.38638000e+00 1.67128000e+01 1.10266000e+00	N
atom  5.01265000e+00 1.78510000e+01 3.15271000e-01	N
atom  5.71750000e+00 1.67184000e+01 1.44729000e+00	Si
atom  1.16068000e-01 1.30004000e+01 3.40666000e+00	N
atom  4.07804000e+00 1.29668000e+01 2.81871000e+00	N
atom  3.82147000e+00 1.13975000e+01 2.31890000e+00	Si
atom  -3.19464000e-01 1.46435000e+01 3.20210000e+00	Si
atom  4.04680000e+00 1.03949000e+01 3.68752000e+00	N
atom  2.35012000e+00 1.50587000e+01 2.53510000e+00	N
atom  4.55728000e+00 1.36582000e+01 4.26199000e+00	Si
atom  7.11672000e+00 1.36454000e+01 2.73511000e+00	Si
atom  6.02905000e+00 1.45225000e+01 3.84041000e+00	N
atom  8.37702000e+00 1.13161000e+01 3.45232000e+00	Si
atom  7.71934000e+00 1.27457000e+01 4.16474000e+00	N
atom  6.90950000e+00 1.06117000e+01 2.81787000e+00	N
atom  8.52023000e+00 1.46328000e+01 2.35858000e+00	N
atom  2.27834000e+00 1.55662000e+01 4.17598000e+00	Si
atom  1.94545000e+00 1.81784000e+01 3.09376000e+00	Si
atom  1.48884000e+00 1.93067000e+01 4.31669000e+00	N
atom  2.85861000e+00 1.72224000e+01 4.36520000e+00	N
atom  7.84111000e+00 1.97044000e+01 3.74165000e+00	N
atom  6.68449000e+00 1.61158000e+01 4.31481000e+00	Si
atom  5.53900000e+00 1.70561000e+01 3.13516000e+00	N
atom  5.02544000e+00 1.91868000e+01 4.54790000e+00	N
atom  6.15769000e+00 2.01421000e+01 3.64061000e+00	Si
atom  8.69363000e+00 1.63899000e+01 2.26261000e+00	Si
atom  8.14947000e+00 1.70370000e+01 3.85101000e+00	N
atom  2.75818000e-01 1.25027000e+01 5.10789000e+00	Si
atom  1.42084000e+00 1.27708000e+01 6.30987000e+00	N
atom  3.31394000e+00 1.45495000e+01 5.08694000e+00	N
atom  3.45318000e+00 1.08586000e+01 6.44427000e+00	N
atom  1.79073000e+00 1.10323000e+01 6.48534000e+00	Si
atom  2.56467000e+00 1.40015000e+01 6.51436000e+00	Si
atom  5.86721000e-01 1.08239000e+01 5.13626000e+00	N
atom  4.74413000e+00 1.08905000e+01 5.19957000e+00	Si
atom  5.29015000e+00 1.25160000e+01 5.24011000e+00	N
atom  6.82892000e+00 1.36191000e+01 5.44694000e+00	Si
atom  9.18868000e+00 1.08629000e+01 6.34419000e+00	Si
atom  7.81588000e+00 1.51551000e+01 5.43269000e+00	N
atom  8.48840000e+00 1.23806000e+01 6.96100000e+00	N
atom  8.99684000e+00 1.03483000e+01 4.71538000e+00	N
atom  5.38058000e-01 1.58461000e+01 6.25386000e+00	Si
atom  2.01507000e+00 1.82898000e+01 5.60724000e+00	Si
atom  3.29680000e+00 1.89928000e+01 6.52036000e+00	N
atom  7.14271000e-01 1.75634000e+01 6.42629000e+00	N
atom  6.38586000e-01 1.53438000e+01 4.63430000e+00	N
atom  4.41800000e+00 2.01510000e+01 5.87949000e+00	Si
atom  5.58900000e+00 1.65987000e+01 5.67901000e+00	N
atom  8.11680000e+00 1.89494000e+01 6.46222000e+00	N
atom  9.43517000e+00 1.54669000e+01 5.68253000e+00	Si
atom  8.52114000e+00 1.84839000e+01 4.78048000e+00	Si
atom  4.61483000e+00 1.75042000e+01 4.49957000e+00	Si
atom  3.53975000e+00 1.33324000e+01 7.84379000e+00	N
atom  1.21008000e+00 1.05741000e+01 7.94344000e+00	N
atom  4.33210000e+00 1.17503000e+01 7.75969000e+00	Si
atom  4.00740000e+00 1.06883000e+01 9.11516000e+00	N
atom  1.99853000e+00 1.54392000e+01 7.18564000e+00	N
atom  6.09980000e+00 1.14221000e+01 7.68781000e+00	N
atom  7.11570000e+00 1.27551000e+01 7.96202000e+00	Si
atom  6.25808000e+00 1.41048000e+01 7.09271000e+00	N
atom  7.49815000e-01 1.98515000e+01 8.17986000e+00	N
atom  2.80631000e+00 1.60946000e+01 8.58906000e+00	Si
atom  7.06489000e-01 1.81223000e+01 8.06699000e+00	Si
atom  3.08209000e+00 1.93056000e+01 8.27195000e+00	Si
atom  2.25544000e+00 1.78143000e+01 8.78133000e+00	N
atom  5.55799000e+00 1.75640000e+01 9.04874000e+00	Si
atom  4.51620000e+00 1.62182000e+01 8.32948000e+00	N
atom  6.86941000e+00 1.69636000e+01 8.01165000e+00	N
atom  4.72221000e+00 1.90695000e+01 8.87958000e+00	N
atom  9.03146000e+00 1.81071000e+01 9.09733000e+00	N
atom  5.83903000e+00 1.58643000e+01 7.21399000e+00	Si
atom  7.31826000e+00 2.02579000e+01 8.78797000e+00	N
atom  8.39542000e+00 1.76590000e+01 7.57070000e+00	Si
atom  2.12819000e+00 1.23346000e+01 9.98283000e+00	N
atom  3.30761000e+00 1.35881000e+01 9.53817000e+00	Si
atom  1.47208000e-01 1.09091000e+01 1.13187000e+01	N
atom  2.47955000e+00 1.50528000e+01 9.97151000e+00	N
atom  1.15112000e+00 1.24620000e+01 1.13209000e+01	Si
atom  2.22374000e+00 1.07010000e+01 9.33420000e+00	Si
atom  3.05468000e-01 1.39760000e+01 1.13181000e+01	N
atom  6.56453000e+00 1.06069000e+01 1.06939000e+01	N
atom  4.87840000e+00 1.31504000e+01 1.01646000e+01	N
atom  6.33036000e+00 1.38427000e+01 1.07617000e+01	Si
atom  7.50871000e+00 1.34521000e+01 9.52257000e+00	N
atom  4.97857000e+00 1.13986000e+01 1.03749000e+01	Si
atom  9.11436000e+00 1.31874000e+01 1.01094000e+01	Si
atom  9.44908000e+00 1.15584000e+01 1.05688000e+01	N
atom  8.22901000e+00 1.03463000e+01 1.09404000e+01	Si
atom  1.42125000e+00 1.53015000e+01 1.13481000e+01	Si
atom  8.48598000e+00 1.97735000e+01 1.13663000e+01	N
atom  6.53442000e+00 1.80097000e+01 1.04464000e+01	N
atom  7.88387000e+00 1.90719000e+01 9.92950000e+00	Si
atom  2.00422000e+00 1.23842000e+01 1.28377000e+01	N
atom  3.71946000e+00 1.23877000e+01 1.30696000e+01	Si
atom  4.27488000e+00 1.40306000e+01 1.29848000e+01	N
atom  3.25306000e+00 1.51889000e+01 1.38219000e+01	Si
atom  4.60548000e+00 1.12583000e+01 1.20898000e+01	N
atom  6.75409000e+00 1.28148000e+01 1.22371000e+01	N
atom  8.03480000e+00 1.36739000e+01 1.29881000e+01	Si
atom  6.36735000e+00 1.10868000e+01 1.24610000e+01	Si
atom  5.68599000e+00 1.50296000e+01 1.32649000e+01	Si
atom  9.34330000e+00 1.08736000e+01 1.37056000e+01	Si
atom  8.11762000e+00 1.03939000e+01 1.26475000e+01	N
atom  9.14518000e+00 1.40982000e+01 1.16414000e+01	N
atom  9.25631000e+00 1.26771000e+01 1.37617000e+01	N
atom  7.48520000e-02 1.99540000e+01 1.25662000e+01	Si
atom  2.17338000e+00 1.59626000e+01 1.28181000e+01	N
atom  9.61059000e-01 1.72231000e+01 1.29994000e+01	Si
atom  1.35876000e+00 1.88315000e+01 1.25843000e+01	N
atom  4.11477000e+00 2.01196000e+01 1.23114000e+01	N
atom  1.01871000e-01 1.65532000e+01 1.16316000e+01	N
atom  2.37327000e+00 2.02152000e+01 1.21052000e+01	Si
atom  9.52951000e+00 1.87975000e+01 1.39741000e+01	N
atom  8.77449000e+00 1.70210000e+01 1.18893000e+01	N
atom  9.44580000e+00 1.85513000e+01 1.22706000e+01	Si
atom  7.00592000e+00 1.70573000e+01 1.18430000e+01	Si
atom  5.43275000e+00 1.92825000e+01 1.31460000e+01	Si
atom  6.68992000e+00 1.80629000e+01 1.32055000e+01	N
atom  6.35846000e+00 1.54498000e+01 1.16801000e+01	N
atom  2.96786000e+00 1.43385000e+01 1.52438000e+01	N
atom  3.92205000e+00 1.19319000e+01 1.47638000e+01	N
atom  1.18413000e+00 1.22288000e+01 1.56821000e+01	N
atom  2.89072000e+00 1.27283000e+01 1.58795000e+01	Si
atom  7.86647000e-01 1.18502000e+01 1.39916000e+01	Si
atom  4.66684000e+00 1.04043000e+01 1.52125000e+01	Si
atom  9.15303000e+00 1.44991000e+01 1.58894000e+01	N
atom  7.21852000e+00 1.48047000e+01 1.40843000e+01	N
atom  9.29160000e+00 1.27772000e+01 1.55922000e+01	Si
atom  9.23738000e+00 1.07476000e+01 1.53935000e+01	N
atom  3.43885000e+00 2.02162000e+01 1.52578000e+01	Si
atom  2.58962000e+00 1.69909000e+01 1.58264000e+01	N
atom  1.31883000e+00 1.81469000e+01 1.56990000e+01	Si
atom  1.74381000e+00 1.97836000e+01 1.52653000e+01	N
atom  2.23747000e-01 1.72748000e+01 1.45370000e+01	N
atom  4.22861000e+00 1.73735000e+01 1.53489000e+01	Si
atom  4.43181000e+00 1.89631000e+01 1.46270000e+01	N
atom  4.66041000e+00 1.62626000e+01 1.40928000e+01	N
atom  7.76401000e+00 1.85398000e+01 1.44765000e+01	Si
atom  7.36580000e+00 2.00558000e+01 1.53155000e+01	N
atom  7.66782000e+00 1.55034000e+01 1.55575000e+01	Si
atom  7.85751000e+00 1.72806000e+01 1.56289000e+01	N
atom  3.24715000e+00 1.25037000e+01 1.76221000e+01	N
atom  1.05322000e+00 1.46424000e+01 1.72474000e+01	N
atom  2.37384000e-01 1.30479000e+01 1.68317000e+01	Si
atom  2.68703000e-02 1.19199000e+01 1.80927000e+01	N
atom  4.28199000e+00 1.38016000e+01 1.82682000e+01	Si
atom  4.02838000e+00 1.51801000e+01 1.74262000e+01	N
atom  8.68755000e+00 1.07660000e+01 1.69875000e+01	Si
atom  7.38494000e+00 1.36164000e+01 1.77997000e+01	Si
atom  8.06675000e+00 1.23708000e+01 1.68744000e+01	N
atom  5.82189000e+00 1.29749000e+01 1.82775000e+01	N
atom  5.72500000e+00 1.12388000e+01 1.83279000e+01	Si
atom  5.42929000e+00 1.06411000e+01 1.67911000e+01	N
atom  6.77942000e+00 1.51630000e+01 1.70685000e+01	N
atom  2.52447000e+00 1.53778000e+01 1.65961000e+01	Si
atom  -1.60493000e-01 1.55057000e+01 1.81572000e+01	Si
atom  4.84422000e-01 1.87368000e+01 1.70988000e+01	N
atom  3.71662000e+00 2.03361000e+01 1.69418000e+01	N
atom  6.30857000e+00 1.99686000e+01 1.79481000e+01	N
atom  9.23691000e+00 1.92692000e+01 1.71763000e+01	N
atom  5.48023000e+00 1.61580000e+01 1.76833000e+01	Si
atom  4.82260000e+00 1.92201000e+01 1.77634000e+01	Si
atom  9.34931000e+00 1.63126000e+01 1.78108000e+01	N
atom  7.77970000e+00 2.02052000e+01 1.70030000e+01	Si
atom  9.15922000e+00 1.76198000e+01 1.67349000e+01	Si
atom  5.11558000e+00 1.76961000e+01 1.68081000e+01	N
atom  3.89917000e+00 1.40304000e+01 1.98978000e+01	N
atom  2.23287000e+00 1.14940000e+01 2.02739000e+01	N
atom  6.98973000e-01 1.08911000e+01 2.08027000e+01	Si
atom  4.37106000e+00 1.04956000e+01 1.91977000e+01	N
atom  2.94119000e+00 1.12128000e+01 1.86798000e+01	Si
atom  3.06009000e+00 1.50559000e+01 2.10244000e+01	Si