lattice_vector  3.98658365e+01 0.00000000e+00 0.00000000e+00
lattice_vector  2.44107845e-15 3.98658365e+01 0.00000000e+00
lattice_vector  2.44107845e-15 2.44107845e-15 3.98658365e+01
atom  2.05140000e-01 2.93259000e+00 4.16069000e+00	Si
atom  6.37652000e-01 4.55389000e+00 4.68147000e+00	N
atom  -3.05516000e-01 1.95167000e+00 2.90793000e+00	N
atom  1.04929000e+00 6.00473000e+00 7.06471000e+00	N
atom  -2.41178000e-01 1.02158000e+01 5.58618000e+00	Si
atom  -8.49054000e-02 5.89282000e+00 3.66092000e+00	Si
atom  8.16533000e-01 7.73945000e+00 1.24723000e+00	Si
atom  1.02198000e+00 6.75978000e+00 2.70371000e+00	N
atom  4.60162000e-01 9.43814000e+00 1.71792000e+00	N
atom  -2.55243000e-01 6.55394000e+00 4.06678000e-01	N
atom  4.42749000e-01 3.01560000e+00 9.00717000e+00	Si
atom  1.11847000e+00 2.04155000e+00 6.29584000e+00	Si
atom  1.27236000e+00 3.26983000e+00 7.53146000e+00	N
atom  -2.17473000e-01 4.52709000e+00 9.59340000e+00	N
atom  1.15695000e+00 3.92898000e-01 6.88367000e+00	N
atom  7.17712000e-01 9.16407000e+00 6.47717000e+00	N
atom  -1.88620000e-01 5.37254000e+00 6.08111000e+00	Si
atom  8.80509000e-03 8.18339000e+00 8.96191000e+00	N
atom  1.04247000e+00 7.73436000e+00 7.51713000e+00	Si
atom  6.15198000e-01 4.11832000e+00 1.11073000e+01	Si
atom  1.54577000e+00 2.84037000e+00 1.02895000e+01	N
atom  6.85948000e-02 3.95782000e+00 1.40681000e+01	Si
atom  1.11517000e+00 2.73950000e+00 1.47091000e+01	N
atom  -3.20139000e-01 3.36432000e+00 1.23482000e+01	N
atom  -2.32485000e-02 3.59754000e-01 1.17022000e+01	N
atom  1.40620000e+00 5.57229000e+00 1.14917000e+01	N
atom  2.87116000e-01 5.74702000e+00 1.38368000e+01	N
atom  3.03147000e-01 8.09983000e+00 1.17743000e+01	N
atom  1.01206000e+00 6.89184000e+00 1.27338000e+01	Si
atom  1.06819000e+00 8.70988000e+00 1.03037000e+01	Si
atom  1.60131000e+00 1.03367000e+01 1.04086000e+01	N
atom  2.33381000e-01 1.23746000e+00 1.51040000e+01	Si
atom  1.27043000e-01 1.18145000e+00 1.68718000e+01	N
atom  2.59016000e-02 3.91878000e+00 1.75315000e+01	N
atom  1.59385000e+00 4.61362000e+00 1.75465000e+01	Si
atom  1.68406000e+00 5.51592000e-01 1.74563000e+01	Si
atom  -2.37099000e-01 7.53115000e+00 1.86567000e+01	N
atom  4.23983000e-01 1.01503000e+01 1.87715000e+01	N
atom  9.15947000e-01 8.57469000e+00 1.94633000e+01	Si
atom  3.03988000e-01 7.03619000e+00 1.71214000e+01	Si
atom  9.21935000e-01 8.37236000e+00 1.62121000e+01	N
atom  1.85099000e+00 6.37173000e+00 1.75446000e+01	N
atom  -4.49892000e-01 9.17652000e+00 1.54122000e+01	Si
atom  1.04160000e+00 1.74674000e+00 2.23089000e+01	Si
atom  1.10551000e+00 3.43129000e+00 2.15762000e+01	N
atom  -1.72446000e-01 4.42297000e+00 2.20630000e+01	Si
atom  5.50454000e-01 6.75673000e+00 2.78258000e+01	N
atom  1.86441000e-01 6.21242000e+00 2.21053000e+01	N
atom  1.05685000e+00 8.37556000e+00 2.11524000e+01	N
atom  1.49320000e-01 8.43840000e+00 2.36580000e+01	N
atom  1.53824000e+00 8.96927000e+00 2.27640000e+01	Si
atom  1.74696000e+00 6.78589000e+00 2.17036000e+01	Si
atom  7.38142000e-01 2.78305000e+00 2.67390000e+01	Si
atom  8.58000000e-01 1.53462000e+00 2.79658000e+01	N
atom  2.79861000e-01 4.25211000e+00 2.75282000e+01	N
atom  1.52982000e+00 4.96417000e+00 2.85159000e+01	Si
atom  -3.68636000e-01 8.86316000e+00 2.65415000e+01	N
atom  2.97114000e-01 7.73140000e+00 2.52568000e+01	Si
atom  -4.91124000e-02 9.50702000e+00 2.93879000e+01	N
atom  -4.88915000e-01 2.33619000e+00 2.55911000e+01	N
atom  1.20865000e+00 8.46474000e-01 3.05698000e+01	N
atom  4.83258000e-01 4.11549000e+00 3.14850000e+01	N
atom  3.20639000e-01 2.02172000e+00 3.32447000e+01	N
atom  -1.31115000e-02 1.38991000e+00 3.16882000e+01	Si
atom  1.82093000e+00 5.23801000e+00 3.15378000e+01	Si
atom  6.91639000e-01 7.89912000e+00 3.61841000e+01	Si
atom  7.94085000e-01 7.96558000e+00 3.20112000e+01	Si
atom  1.05457000e+00 9.07665000e+00 3.32893000e+01	N
atom  1.63050000e+00 6.57407000e+00 3.26469000e+01	N
atom  1.74839000e+00 1.00959000e+01 3.44152000e+01	Si
atom  1.91656000e+00 8.63120000e+00 3.07485000e+01	N
atom  1.87640000e+00 5.91523000e+00 2.99236000e+01	N
atom  3.96628000e-03 4.01860000e+00 3.55050000e+01	N
atom  1.26200000e+00 1.70055000e+00 3.82849000e+01	N
atom  1.64681000e+00 3.55622000e+00 3.58392000e+01	Si
atom  8.20600000e-01 7.59065000e+00 3.79055000e+01	N
atom  7.15921000e-01 9.65122000e+00 3.57367000e+01	N
atom  4.62182000e-01 2.28667000e+00 3.96948000e+01	Si
atom  1.54127000e+00 1.01908000e+01 2.98050000e+01	Si
atom  7.25263000e-01 1.21792000e+01 3.71756000e+00	Si
atom  6.34991000e-01 1.38292000e+01 4.07914000e+00	N
atom  1.86729000e+00 1.06481000e+01 1.32918000e+00	Si
atom  1.89177000e+00 1.20836000e+01 2.43804000e+00	N
atom  -5.60505000e-02 1.82728000e+01 4.10791000e+00	N
atom  1.19951000e+00 1.72663000e+01 3.48240000e+00	Si
atom  2.88273000e-01 1.59765000e+01 2.53776000e+00	N
atom  1.38956000e-01 1.96676000e+01 2.86646000e-01	Si
atom  -5.09654000e-02 1.63896000e+01 7.81966000e-01	Si
atom  -3.01085000e-01 1.98448000e+01 3.25554000e+00	Si
atom  1.36867000e+00 1.26419000e+01 6.53211000e+00	Si
atom  2.84906000e-01 1.49702000e+01 8.06001000e+00	Si
atom  1.09348000e+00 1.13908000e+01 5.19595000e+00	N
atom  -9.57460000e-03 1.34934000e+01 7.18370000e+00	N
atom  1.76759000e+00 1.49766000e+01 9.02538000e+00	N
atom  2.04042000e+00 1.14235000e+01 7.56772000e+00	N
atom  1.64409000e+00 1.89370000e+01 6.23782000e+00	N
atom  3.14671000e-01 1.65233000e+01 7.29242000e+00	N
atom  1.76823000e+00 1.63201000e+01 4.87943000e+00	N
atom  1.59602000e+00 1.71811000e+01 6.38193000e+00	Si
atom  1.60090000e-01 1.93439000e+01 5.66388000e+00	Si
atom  8.40988000e-01 1.20843000e+01 1.42230000e+01	Si
atom  8.63119000e-01 1.14331000e+01 1.15762000e+01	Si
atom  5.00336000e-01 1.29111000e+01 1.06903000e+01	N
atom  9.46448000e-01 1.51053000e+01 1.35219000e+01	N
atom  9.87076000e-01 1.91770000e+01 1.68149000e+01	Si
atom  6.45578000e-01 1.79691000e+01 1.96806000e+01	Si
atom  -3.24701000e-01 1.90675000e+01 1.43834000e+01	Si
atom  3.24453000e-01 1.77839000e+01 1.03021000e+01	Si
atom  1.49453000e-01 1.92874000e+01 1.11695000e+01	N
atom  1.45809000e+00 1.61280000e+01 1.22099000e+01	Si
atom  1.71765000e-01 1.61979000e+01 1.11356000e+01	N
atom  1.46999000e+00 1.93469000e+01 1.22729000e+01	Si
atom  8.29899000e-01 2.02201000e+01 1.37446000e+01	N
atom  7.30641000e-01 1.81329000e+01 1.54291000e+01	N
atom  -1.07398000e-01 1.07445000e+01 1.48763000e+01	N
atom  3.23381000e-01 1.37434000e+01 1.65447000e+01	Si
atom  1.52496000e+00 1.30804000e+01 1.54005000e+01	N
atom  7.48181000e-01 1.29510000e+01 1.81375000e+01	N
atom  1.44066000e+00 1.15295000e+01 1.88265000e+01	Si
atom  3.21229000e-01 1.39995000e+01 1.94742000e+01	Si
atom  1.68399000e+00 1.50850000e+01 1.92360000e+01	N
atom  1.09593000e+00 1.53381000e+01 1.65135000e+01	N
atom  7.24721000e-01 1.77881000e+01 1.79993000e+01	N
atom  2.84342000e-01 1.68357000e+01 1.66041000e+01	Si
atom  1.25712000e+00 1.19996000e+01 2.16902000e+01	Si
atom  7.90921000e-02 1.30241000e+01 2.09290000e+01	N
atom  5.29470000e-01 1.08459000e+01 2.26720000e+01	N
atom  1.79439000e+00 1.13379000e+01 2.38970000e+01	Si
atom  1.65777000e+00 1.55660000e+01 2.20490000e+01	N
atom  1.35658000e-01 1.63324000e+01 2.23193000e+01	Si
atom  6.48241000e-02 1.75850000e+01 2.34135000e+01	N
atom  9.68849000e-01 2.01931000e+01 2.41727000e+01	N
atom  -2.00844000e-01 1.89271000e+01 2.44163000e+01	Si
atom  -2.30633000e-01 1.52317000e+01 2.97251000e+01	N
atom  6.21318000e-01 1.97439000e+01 2.92252000e+01	Si
atom  4.58724000e-01 1.19760000e+01 2.68700000e+01	Si
atom  4.96460000e-01 1.35983000e+01 2.73127000e+01	N
atom  1.42109000e+00 1.11944000e+01 2.80759000e+01	N
atom  7.89565000e-01 1.49621000e+01 2.62467000e+01	Si
atom  9.11140000e-01 1.16231000e+01 2.53319000e+01	N
atom  2.10022000e-01 1.81889000e+01 2.87428000e+01	N
atom  1.05962000e+00 1.79897000e+01 2.72028000e+01	Si
atom  1.50214000e+00 1.63161000e+01 2.70620000e+01	N
atom  -1.56020000e-01 1.82763000e+01 2.60111000e+01	N
atom  1.76074000e-01 1.96403000e+01 2.00195000e+01	N
atom  1.28998000e+00 1.13105000e+01 3.11031000e+01	N
atom  1.42194000e+00 1.17978000e+01 3.38422000e+01	N
atom  -6.11951000e-02 1.28321000e+01 3.41300000e+01	Si
atom  7.39305000e-01 1.53197000e+01 3.12143000e+01	Si
atom  -2.66361000e-01 1.18862000e+01 3.12981000e+01	Si
atom  5.54593000e-01 1.91146000e+01 3.52178000e+01	N
atom  1.43314000e+00 1.89867000e+01 3.25311000e+01	N
atom  -2.47682000e-01 2.00297000e+01 3.06863000e+01	N
atom  1.60472000e+00 1.12367000e+01 3.96006000e+01	N
atom  -2.70814000e-01 1.15914000e+01 3.74700000e+01	N
atom  1.45292000e+00 1.38679000e+01 3.81623000e+01	N
atom  1.29693000e+00 1.20216000e+01 3.81080000e+01	Si
atom  7.63065000e-01 1.46835000e+01 3.67800000e+01	Si
atom  8.89352000e-01 1.36387000e+01 3.54441000e+01	N
atom  6.78052000e-01 1.99689000e+01 3.69807000e+01	Si
atom  1.33513000e+00 1.62079000e+01 3.95709000e+01	N
atom  1.77926000e+00 1.77167000e+01 3.86112000e+01	Si
atom  2.04215000e-01 1.74581000e+01 3.59525000e+01	Si
atom  1.39009000e+00 1.62279000e+01 3.62013000e+01	N
atom  5.08623000e-01 1.82534000e+01 3.75397000e+01	N
atom  6.98089000e-01 2.31533000e+01 9.13196000e-01	N
atom  1.50372000e+00 2.18448000e+01 1.70567000e+00	Si
atom  -5.70729000e-02 2.50085000e+01 3.05244000e+00	N
atom  7.43549000e-01 2.48526000e+01 4.64292000e+00	Si
atom  5.87763000e-01 2.03491000e+01 1.81638000e+00	N
atom  -4.58854000e-02 2.07913000e+01 4.83622000e+00	N
atom  2.48862000e-01 2.92197000e+01 8.34044000e-01	Si
atom  4.45847000e-01 2.73436000e+01 3.68022000e+00	N
atom  1.11028000e+00 2.97942000e+01 2.24220000e+00	N
atom  -1.98983000e-02 2.75489000e+01 1.04038000e+00	N
atom  1.21180000e+00 2.32286000e+01 5.06060000e+00	N
atom  9.25324000e-01 2.21403000e+01 8.59314000e+00	Si
atom  -1.54639000e-01 2.23207000e+01 5.64921000e+00	Si
atom  1.14598000e+00 2.05208000e+01 9.11143000e+00	N
atom  -2.80033000e-01 2.20236000e+01 7.38162000e+00	N
atom  2.47569000e-01 2.66621000e+01 7.27921000e+00	Si
atom  1.72512000e+00 2.67719000e+01 8.26580000e+00	N
atom  -1.25853000e-01 2.56049000e+01 5.94352000e+00	N
atom  1.38907000e+00 2.94931000e+01 6.21394000e+00	Si
atom  1.24165000e-02 2.82784000e+01 6.54716000e+00	N
atom  8.97248000e-01 2.61451000e+01 9.65116000e+00	Si
atom  7.09411000e-01 2.36475000e+01 1.12694000e+01	Si
atom  7.16518000e-01 2.20743000e+01 1.37827000e+01	Si
atom  4.66364000e-01 2.37583000e+01 1.43809000e+01	N
atom  1.62723000e+00 2.25213000e+01 1.22777000e+01	N
atom  -1.51439000e-01 2.48055000e+01 1.21049000e+01	N
atom  6.35058000e-02 2.24699000e+01 1.01351000e+01	N
atom  -1.58012000e-01 2.06781000e+01 1.02256000e+01	Si
atom  1.71338000e+00 2.46648000e+01 1.02319000e+01	N
atom  -3.68439000e-01 2.66698000e+01 1.40565000e+01	N
atom  8.82732000e-01 3.00216000e+01 1.12159000e+01	N
atom  5.29129000e-01 2.63985000e+01 1.24918000e+01	Si
atom  5.33571000e-01 2.71795000e+01 1.09480000e+01	N
atom  -2.08850000e-01 2.87761000e+01 1.07883000e+01	Si
atom  1.99048000e+00 2.16813000e+01 1.85175000e+01	N
atom  6.42035000e-01 2.33736000e+01 1.70991000e+01	N
atom  1.20376000e+00 2.16883000e+01 1.69345000e+01	Si
atom  1.62731000e+00 2.38910000e+01 1.57353000e+01	Si
atom  -1.29179000e-01 2.05867000e+01 1.68235000e+01	N
atom  1.92137000e+00 2.20392000e+01 1.53692000e+01	N
atom  5.62359000e-01 2.90847000e+01 1.75906000e+01	Si
atom  -6.61754000e-02 2.84487000e+01 1.91302000e+01	N
atom  8.52614000e-01 2.71200000e+01 1.52890000e+01	Si
atom  -8.20319000e-02 2.80395000e+01 1.64019000e+01	N
atom  1.64397000e+00 2.56290000e+01 1.58291000e+01	N
atom  -1.49044000e-01 2.53559000e+01 1.96742000e+01	N
atom  3.55038000e-01 2.18280000e+01 2.20646000e+01	Si
atom  7.00308000e-01 2.27145000e+01 2.35083000e+01	N
atom  8.90021000e-01 2.42313000e+01 2.04773000e+01	Si
atom  9.00397000e-02 2.27424000e+01 2.05893000e+01	N
atom  1.46558000e+00 2.41948000e+01 2.37049000e+01	Si
atom  1.11453000e+00 2.48623000e+01 2.21024000e+01	N
atom  1.73196000e+00 2.09602000e+01 2.16264000e+01	N
atom  1.53132000e+00 2.07360000e+01 1.99106000e+01	Si
atom  4.89869000e-01 2.77804000e+01 2.33073000e+01	Si
atom  6.74232000e-01 2.94410000e+01 2.36174000e+01	N
atom  2.07758000e-01 2.71953000e+01 2.16935000e+01	N
atom  4.00062000e-01 2.70552000e+01 1.99851000e+01	Si
atom  5.35950000e-01 2.16873000e+01 2.49352000e+01	Si
atom  4.35668000e-01 2.09843000e+01 2.79863000e+01	N
atom  1.60709000e+00 2.21743000e+01 2.74894000e+01	Si
atom  7.75948000e-01 2.49508000e+01 2.50404000e+01	N
atom  1.80567000e+00 2.44168000e+01 2.94182000e+01	Si
atom  1.73127000e+00 2.39009000e+01 2.78094000e+01	N
atom  1.91555000e+00 2.21168000e+01 2.57963000e+01	N
atom  1.52880000e+00 2.52340000e+01 2.66277000e+01	Si
atom  -1.51953000e-01 2.77840000e+01 2.77850000e+01	Si
atom  1.23164000e+00 2.87302000e+01 2.75900000e+01	N
atom  1.95520000e+00 2.61630000e+01 2.95725000e+01	N
atom  1.33688000e-01 2.62214000e+01 2.70750000e+01	N
atom  4.96768000e-01 2.39202000e+01 3.29379000e+01	N
atom  1.70517000e-01 2.29782000e+01 3.15123000e+01	Si
atom  2.38619000e-01 2.26524000e+01 3.41185000e+01	Si
atom  1.59564000e+00 2.19366000e+01 3.16318000e+01	N
atom  3.00404000e-01 2.39952000e+01 3.00934000e+01	N
atom  -3.96974000e-02 2.11349000e+01 3.34156000e+01	N
atom  7.49522000e-01 2.04935000e+01 3.20000000e+01	Si
atom  9.74415000e-01 2.55724000e+01 3.32608000e+01	Si
atom  6.63968000e-01 2.69853000e+01 3.04586000e+01	Si
atom  1.43295000e-01 2.63136000e+01 3.19043000e+01	N
atom  1.26269000e+00 2.86273000e+01 3.42763000e+01	N
atom  -2.42819000e-01 2.78078000e+01 3.45341000e+01	Si
atom  -1.49659000e-01 2.60709000e+01 3.45021000e+01	N
atom  1.55414000e+00 2.27101000e+01 3.52842000e+01	N
atom  6.00089000e-01 2.36651000e+01 3.91710000e+01	Si
atom  7.18459000e-01 2.06018000e+01 3.87477000e+01	N
atom  7.69404000e-01 2.54108000e+01 3.90407000e+01	N
atom  1.30995000e+00 2.95570000e+01 3.93681000e+01	N
atom  5.56775000e-01 3.03697000e+01 3.18860000e+01	N
atom  1.00726000e+00 3.00895000e+01 3.66520000e+01	N
atom  7.79888000e-01 3.33592000e+01 3.18665000e+00	Si
atom  1.70062000e-01 3.43640000e+01 1.92778000e+00	N
atom  5.83867000e-01 3.45073000e+01 4.47448000e+00	N
atom  3.21349000e-01 3.04243000e+01 3.65118000e+00	Si
atom  1.62055000e+00 3.04995000e+01 4.77115000e+00	N
atom  1.45320000e+00 3.52283000e+01 9.69284000e-01	Si
atom  -3.39963000e-01 3.20745000e+01 3.31971000e+00	N
atom  8.42005000e-01 3.90240000e+01 2.36037000e+00	N
atom  1.18331000e+00 3.84451000e+01 3.97182000e+00	Si
atom  1.31240000e+00 3.69223000e+01 4.95580000e-01	N
atom  5.04769000e-01 3.41118000e+01 7.28595000e+00	Si
atom  1.17280000e+00 3.19082000e+01 8.26265000e+00	Si
atom  3.24413000e-01 3.33990000e+01 8.94299000e+00	N
atom  1.73067000e+00 3.28619000e+01 6.90638000e+00	N
atom  9.08910000e-01 3.03415000e+01 7.69730000e+00	N
atom  -2.18033000e-01 3.92453000e+01 6.62056000e+00	Si
atom  1.68796000e+00 3.55480000e+01 5.33324000e+00	Si
atom  4.32874000e-02 3.79120000e+01 7.62213000e+00	N
atom  -1.91500000e-01 3.84651000e+01 5.03403000e+00	N
atom  1.52244000e+00 3.71348000e+01 7.89946000e+00	Si
atom  1.04882000e+00 3.56611000e+01 6.99854000e+00	N
atom  1.84882000e+00 3.68725000e+01 4.11710000e+00	N
atom  1.96285000e+00 3.71124000e+01 9.54913000e+00	N
atom  -3.49405000e-01 4.02844000e+01 2.09157000e+00	Si
atom  1.09111000e+00 3.28408000e+01 1.19287000e+01	N
atom  4.67893000e-01 3.12856000e+01 1.24071000e+01	Si
atom  1.43086000e+00 3.09090000e+01 1.38422000e+01	N
atom  1.43015000e+00 3.38676000e+01 1.34918000e+01	Si
atom  1.54019000e+00 3.34856000e+01 1.04307000e+01	Si
atom  -9.01692000e-02 3.50013000e+01 1.32163000e+01	N
atom  1.04050000e+00 3.52485000e+01 1.08219000e+01	N
atom  8.95154000e-01 3.70370000e+01 1.08664000e+01	Si
atom  1.26631000e+00 3.96091000e+01 1.27244000e+01	Si
atom  1.48312000e+00 3.79005000e+01 1.22671000e+01	N
atom  1.16624000e+00 3.98019000e+01 1.44952000e+01	N
atom  -1.81909000e-01 3.61421000e+01 1.44246000e+01	Si
atom  5.69112000e-01 3.31497000e+01 1.49037000e+01	N
atom  1.84932000e-01 3.07289000e+01 1.64409000e+01	N
atom  1.50090000e+00 3.20218000e+01 1.93717000e+01	N
atom  1.20644000e+00 3.16228000e+01 1.54272000e+01	Si
atom  2.22135000e-01 3.35783000e+01 1.78972000e+01	N
atom  1.28758000e+00 3.47554000e+01 1.85235000e+01	Si
atom  -1.63029000e-01 3.24736000e+01 1.91494000e+01	Si
atom  1.86121000e-01 3.88484000e+01 1.89072000e+01	N
atom  7.65188000e-01 3.72548000e+01 1.53860000e+01	N
atom  1.02407000e+00 3.63777000e+01 1.79551000e+01	N
atom  1.54325000e+00 3.79168000e+01 1.84632000e+01	Si
atom  -2.05767000e-01 3.67931000e+01 1.67918000e+01	Si
atom  1.99795000e+00 3.84440000e+01 1.53229000e+01	Si
atom  1.03844000e+00 3.16890000e+01 2.21641000e+01	N
atom  1.27524000e+00 3.10083000e+01 2.37379000e+01	Si
atom  1.33789000e+00 3.48289000e+01 2.03027000e+01	N
atom  6.67545000e-01 3.49824000e+01 2.33624000e+01	N
atom  8.85727000e-01 3.56608000e+01 2.17442000e+01	Si
atom  4.52111000e-01 3.87494000e+01 2.19889000e+01	Si
atom  4.97076000e-01 3.88421000e+01 2.37465000e+01	N
atom  3.39528000e-02 3.71059000e+01 2.15145000e+01	N
atom  1.37598000e+00 4.00940000e+01 2.13677000e+01	N
atom  6.16197000e-02 3.18161000e+01 2.47388000e+01	N
atom  7.21093000e-01 3.29106000e+01 2.59168000e+01	Si
atom  1.13383000e+00 3.18456000e+01 2.72425000e+01	N
atom  1.51946000e+00 3.08633000e+01 2.94981000e+01	N
atom  -2.70203000e-01 3.42851000e+01 2.58993000e+01	N
atom  -1.22912000e-01 3.87984000e+01 2.90275000e+01	N
atom  8.46553000e-01 3.03430000e+01 2.79597000e+01	Si
atom  4.70337000e-02 3.84069000e+01 2.53714000e+01	Si
atom  1.75402000e+00 3.85861000e+01 2.58414000e+01	N
atom  1.52275000e+00 3.59018000e+01 2.72381000e+01	N
atom  -1.66842000e-01 3.57393000e+01 2.68693000e+01	Si
atom  -3.75299000e-01 4.01781000e+01 2.79100000e+01	Si
atom  9.27851000e-01 3.37282000e+01 3.05312000e+01	Si
atom  1.29414000e+00 3.47116000e+01 3.42004000e+01	N
atom  -2.87075000e-01 3.08164000e+01 3.03231000e+01	Si
atom  -3.50785000e-01 3.51951000e+01 3.92549000e+01	N
atom  1.94640000e+00 3.31431000e+01 3.17832000e+01	N
atom  5.70209000e-01 3.53966000e+01 3.07708000e+01	N
atom  1.63691000e+00 3.80548000e+01 3.12094000e+01	N
atom  4.38139000e-01 3.73576000e+01 3.34880000e+01	N
atom  8.11075000e-01 3.87683000e+01 3.26208000e+01	Si
atom  1.70440000e+00 3.62745000e+01 3.39265000e+01	Si
atom  1.39110000e+00 3.90644000e+01 2.98748000e+01	Si
atom  -2.56687000e-01 3.71370000e+01 3.75254000e+01	N
atom  -5.16747000e-02 3.69203000e+01 3.92572000e+01	Si
atom  1.37053000e+00 3.08807000e+01 3.81266000e+01	Si
atom  1.63770000e+00 3.21760000e+01 3.52314000e+01	N
atom  6.68709000e-01 3.38612000e+01 3.85168000e+01	Si
atom  6.73538000e-01 3.35884000e+01 3.54185000e+01	Si
atom  2.93562000e-01 3.21599000e+01 3.85952000e+01	N
atom  3.77110000e-01 3.43959000e+01 3.68705000e+01	N
atom  1.39584000e+00 3.03296000e+01 3.48933000e+01	Si
atom  1.47842000e+00 3.91180000e+01 3.62172000e+01	N
atom  -1.54971000e-01 3.86807000e+01 3.66930000e+01	Si
atom  2.88231000e+00 1.37188000e+00 8.86529000e-01	Si
atom  3.58358000e+00 1.78107000e+00 2.41435000e+00	N
atom  3.09963000e+00 3.71516000e+00 1.59635000e+00	Si
atom  2.74471000e+00 4.64877000e+00 3.07188000e+00	N
atom  3.05757000e+00 1.17264000e+00 4.02727000e+00	Si
atom  3.25313000e+00 4.84713000e+00 2.16145000e-01	N
atom  2.34424000e+00 4.16375000e+00 4.61881000e+00	Si
atom  1.95771000e+00 2.39705000e+00 4.72755000e+00	N
atom  2.71186000e+00 6.37063000e+00 3.08170000e+00	Si
atom  3.43155000e+00 7.04717000e+00 4.49482000e+00	N
atom  3.43739000e+00 1.00264000e+01 1.61874000e+00	N
atom  3.85174000e+00 8.43739000e+00 1.07786000e+00	Si
atom  4.01763000e+00 6.90625000e+00 2.01283000e+00	N
atom  2.23868000e+00 8.09368000e+00 2.22604000e-01	N
atom  4.11753000e+00 5.56995000e-01 6.84975000e+00	N
atom  3.31569000e+00 4.44960000e+00 6.03957000e+00	N
atom  2.21273000e+00 4.74403000e+00 7.39250000e+00	Si
atom  3.19013000e+00 7.34376000e-01 9.42926000e+00	N
atom  3.16140000e+00 5.15718000e+00 8.70179000e+00	N
atom  2.73348000e+00 7.84004000e+00 7.33236000e+00	N
atom  3.84901000e+00 9.89768000e+00 8.94940000e+00	N
atom  3.64938000e+00 9.84836000e+00 5.66280000e+00	N
atom  3.59460000e+00 8.05429000e+00 5.88538000e+00	Si
atom  3.57157000e+00 8.17711000e+00 8.82830000e+00	Si
atom  1.83675000e+00 2.70683000e+00 8.42798000e-01	N
atom  2.10619000e+00 1.02032000e+01 6.24349000e+00	Si
atom  2.71794000e+00 1.66598000e+00 1.07352000e+01	Si
atom  3.92517000e+00 2.56363000e+00 1.43129000e+01	N
atom  3.97754000e+00 1.59322000e+00 1.28853000e+01	Si
atom  2.60714000e+00 8.13797000e-01 1.22589000e+01	N
atom  4.21287000e+00 2.39686000e+00 1.12869000e+01	N
atom  2.67119000e+00 7.23141000e+00 1.28736000e+01	N
atom  2.81605000e+00 6.57985000e+00 1.12152000e+01	Si
atom  3.99107000e+00 7.41541000e+00 1.39176000e+01	Si
atom  2.46920000e+00 7.77460000e+00 1.00804000e+01	N
atom  2.64736000e+00 2.76830000e+00 1.54379000e+01	Si
atom  2.81112000e+00 4.19875000e+00 1.63918000e+01	N
atom  3.03121000e+00 2.48729000e+00 1.83491000e+01	Si
atom  2.83633000e+00 1.69333000e+00 1.67719000e+01	N
atom  2.30287000e+00 1.02526000e+00 1.90142000e+01	N
atom  2.18479000e+00 3.86514000e+00 1.90123000e+01	N
atom  3.41752000e+00 6.73788000e+00 1.54056000e+01	N
atom  3.78482000e+00 9.14399000e+00 1.66627000e+01	N
atom  3.49935000e+00 9.90221000e+00 1.81793000e+01	Si
atom  2.56353000e+00 7.79771000e+00 1.65276000e+01	Si
atom  4.03975000e+00 5.39467000e+00 1.63598000e+01	Si
atom  3.04439000e+00 6.76303000e+00 1.88855000e+01	Si
atom  2.51743000e+00 8.45580000e+00 1.87350000e+01	N
atom  3.75416000e+00 3.82669000e+00 2.13252000e+01	N
atom  2.34304000e+00 4.35055000e+00 2.06187000e+01	Si
atom  4.15246000e+00 3.12854000e+00 2.41749000e+01	N
atom  2.52320000e+00 7.47231000e+00 2.30097000e+01	N
atom  3.39829000e+00 7.26791000e+00 2.45243000e+01	Si
atom  2.34770000e+00 6.09666000e+00 2.03062000e+01	N
atom  2.77724000e+00 1.00122000e+01 2.33511000e+01	N
atom  3.02221000e+00 1.97200000e+00 2.47632000e+01	Si
atom  2.17448000e+00 3.08979000e+00 2.57567000e+01	N
atom  3.33398000e+00 4.42906000e+00 2.59941000e+01	Si
atom  2.36846000e+00 3.51497000e+00 2.89085000e+01	N
atom  3.77343000e+00 1.71418000e+00 2.93378000e+01	N
atom  4.09522000e+00 3.28027000e+00 2.87116000e+01	Si
atom  3.58425000e+00 4.71641000e-01 2.55264000e+01	N
atom  1.99543000e+00 1.81479000e+00 2.93211000e+01	Si
atom  2.15993000e+00 7.05158000e+00 2.71512000e+01	Si
atom  4.15597000e+00 5.69137000e+00 2.50197000e+01	N
atom  2.63916000e+00 5.41473000e+00 2.72019000e+01	N
atom  2.08427000e+00 7.71660000e+00 2.55971000e+01	N
atom  3.00834000e+00 7.98160000e+00 2.82622000e+01	N
atom  4.01559000e+00 9.33331000e+00 2.82715000e+01	Si
atom  1.93805000e+00 1.19545000e+00 2.36839000e+01	N
atom  3.39363000e+00 4.64750000e+00 3.20193000e+01	N
atom  3.45654000e+00 3.70070000e+00 3.34297000e+01	Si
atom  3.37063000e+00 2.00090000e+00 3.33325000e+01	N
atom  2.37856000e+00 4.44642000e+00 3.44661000e+01	N
atom  2.51335000e+00 6.20084000e+00 3.41936000e+01	Si
atom  2.77108000e+00 7.36611000e+00 2.99015000e+01	Si
atom  3.76984000e+00 7.24932000e+00 3.62643000e+01	Si
atom  2.74583000e+00 3.83390000e+00 3.71963000e+01	N
atom  3.68938000e+00 4.69132000e+00 3.83899000e+01	Si
atom  3.47343000e+00 6.35368000e+00 3.78492000e+01	N
atom  1.91108000e+00 8.14637000e-01 3.69767000e+01	Si
atom  2.52456000e+00 7.77103000e+00 3.84094000e+01	Si
atom  2.10553000e+00 7.18262000e+00 3.55348000e+01	N
atom  3.26008000e+00 8.81807000e+00 3.72319000e+01	N
atom  1.85443000e+00 1.42080000e+00 3.38880000e+01	Si
atom  1.76457000e+00 1.84107000e+00 3.55793000e+01	N
atom  3.29651000e+00 1.44409000e+01 3.42871000e+00	N
atom  3.22431000e+00 1.31207000e+01 2.17919000e+00	Si
atom  3.17169000e+00 1.37696000e+01 6.10783000e-01	N
atom  2.09693000e+00 1.46853000e+01 4.61124000e+00	Si
atom  2.57322000e+00 1.78948000e+01 2.81497000e+00	N
atom  3.25974000e+00 1.85742000e+01 1.32234000e+00	Si
atom  4.15255000e+00 1.72422000e+01 6.22047000e-01	N
atom  4.10116000e+00 1.83297000e+01 3.62103000e+00	Si
atom  2.10622000e+00 1.89003000e+01 5.26906000e-02	N
atom  2.58389000e+00 1.11132000e+01 9.22346000e+00	Si
atom  2.47769000e+00 1.37754000e+01 6.08646000e+00	N
atom  4.09516000e+00 1.39342000e+01 6.55220000e+00	Si
atom  3.03809000e+00 1.26892000e+01 9.84398000e+00	N
atom  4.07483000e+00 1.85648000e+01 5.47168000e+00	N
atom  3.26854000e+00 1.97162000e+01 6.46274000e+00	Si
atom  3.67095000e+00 1.98101000e+01 8.21050000e+00	N
atom  2.79664000e+00 1.63432000e+01 9.01493000e+00	Si
atom  2.96441000e+00 1.67225000e+01 7.29993000e+00	N
atom  2.47372000e+00 1.94726000e+01 9.55810000e+00	Si
atom  1.92623000e+00 1.78230000e+01 9.63559000e+00	N
atom  3.59432000e+00 1.39737000e+01 1.39847000e+01	N
atom  3.60085000e+00 1.22154000e+01 1.35878000e+01	Si
atom  2.69810000e+00 1.51856000e+01 1.14023000e+01	N
atom  2.17092000e+00 1.47799000e+01 1.48697000e+01	Si
atom  1.98593000e+00 1.17531000e+01 1.29781000e+01	N
atom  2.24278000e+00 1.78242000e+01 1.45265000e+01	Si
atom  3.42997000e+00 1.90914000e+01 1.44260000e+01	N
atom  2.80420000e+00 1.99868000e+01 1.12578000e+01	N
atom  2.41277000e+00 2.00248000e+01 1.67924000e+01	N
atom  3.78888000e+00 1.15450000e+01 1.52401000e+01	N
atom  3.44595000e+00 1.41242000e+01 1.70302000e+01	N
atom  2.94702000e+00 1.25080000e+01 1.63964000e+01	Si
atom  2.60434000e+00 1.13183000e+01 1.75775000e+01	N
atom  2.39175000e+00 1.53768000e+01 1.77182000e+01	Si
atom  3.57279000e+00 1.66318000e+01 1.79138000e+01	N
atom  3.04009000e+00 1.63529000e+01 1.50312000e+01	N
atom  3.03783000e+00 1.97958000e+01 1.96074000e+01	N
atom  1.98140000e+00 1.39355000e+01 1.03938000e+01	Si
atom  1.82790000e+00 1.77081000e+01 1.28766000e+01	N
atom  2.33255000e+00 1.13765000e+01 2.04250000e+01	N
atom  3.89338000e+00 1.45421000e+01 2.34078000e+01	N
atom  4.06041000e+00 1.09586000e+01 2.06834000e+01	Si
atom  2.13942000e+00 1.27099000e+01 2.29515000e+01	N
atom  2.05947000e+00 1.44018000e+01 2.32151000e+01	Si
atom  3.93351000e+00 1.26628000e+01 2.32975000e+01	Si
atom  4.11070000e+00 1.54600000e+01 2.05809000e+01	N
atom  2.24517000e+00 1.74746000e+01 2.03171000e+01	N
atom  2.37751000e+00 1.58643000e+01 2.05402000e+01	Si
atom  3.48317000e+00 1.85858000e+01 2.07440000e+01	Si
atom  3.39831000e+00 1.89062000e+01 2.24362000e+01	N
atom  2.41652000e+00 2.02118000e+01 2.30862000e+01	Si
atom  3.32952000e+00 1.70557000e+01 2.46903000e+01	N
atom  3.21684000e+00 1.97223000e+01 2.85050000e+01	Si
atom  3.44271000e+00 1.53754000e+01 2.48787000e+01	Si
atom  3.71751000e+00 1.23811000e+01 2.50768000e+01	N
atom  3.82996000e+00 1.31578000e+01 2.80857000e+01	N
atom  3.12350000e+00 1.16121000e+01 2.81015000e+01	Si
atom  3.94974000e+00 1.05370000e+01 2.70440000e+01	N
atom  3.29285000e+00 1.04800000e+01 2.95200000e+01	N
atom  2.56698000e+00 1.88783000e+01 2.70547000e+01	N
atom  3.80631000e+00 1.80877000e+01 2.59303000e+01	Si
atom  1.69304000e+00 1.48212000e+01 2.47750000e+01	N
atom  3.75738000e+00 1.17471000e+01 3.22298000e+01	N
atom  2.11747000e+00 1.23629000e+01 3.22803000e+01	Si
atom  3.91595000e+00 1.31083000e+01 3.46593000e+01	N
atom  3.21207000e+00 1.52931000e+01 3.16705000e+01	Si
atom  1.99975000e+00 1.40238000e+01 3.17744000e+01	N
atom  1.95125000e+00 1.91327000e+01 3.41964000e+01	Si
atom  2.37187000e+00 1.82175000e+01 3.12993000e+01	Si
atom  3.91875000e+00 1.85621000e+01 3.21593000e+01	N
atom  3.95962000e+00 1.57242000e+01 3.31734000e+01	N
atom  2.06069000e+00 1.65590000e+01 3.11951000e+01	N
atom  4.18692000e+00 1.74527000e+01 3.35351000e+01	Si
atom  2.23257000e+00 1.93354000e+01 2.98932000e+01	N
atom  4.17440000e+00 2.02656000e+01 3.25567000e+01	Si
atom  3.05737000e+00 1.78365000e+01 3.47299000e+01	N
atom  2.33176000e+00 1.48144000e+01 3.93536000e+01	Si
atom  2.43815000e+00 1.17494000e+01 3.67944000e+01	N
atom  2.27839000e+00 1.26442000e+01 3.53044000e+01	Si
atom  3.54680000e+00 1.03955000e+01 3.65477000e+01	Si
atom  3.91819000e+00 1.52403000e+01 3.86607000e+01	N
atom  3.99819000e+00 1.54138000e+01 3.59587000e+01	N
atom  4.08945000e+00 1.92251000e+01 3.71746000e+01	Si
atom  2.49781000e+00 2.01454000e+01 3.70588000e+01	N
atom  3.36100000e+00 1.76349000e+01 3.76778000e+01	N
atom  2.97074000e+00 1.67743000e+01 3.61101000e+01	Si
atom  3.40964000e+00 1.04129000e+01 3.47965000e+01	N
atom  2.60098000e+00 2.18539000e+01 3.00779000e+00	N
atom  2.66572000e+00 2.15704000e+01 3.98207000e-01	N
atom  2.72396000e+00 2.24501000e+01 4.68407000e+00	Si
atom  4.03016000e+00 2.12811000e+01 2.28440000e+00	Si
atom  3.36784000e+00 2.46467000e+01 -8.03726000e-02	N
atom  3.49092000e+00 2.63047000e+01 6.53591000e-01	Si
atom  3.07532000e+00 2.82819000e+01 3.75882000e+00	N
atom  3.52704000e+00 2.88509000e+01 9.29810000e-01	N
atom  2.80503000e+00 2.94239000e+01 2.40278000e+00	Si
atom  2.43765000e+00 2.62891000e+01 1.92115000e+00	N
atom  2.32279000e+00 2.56643000e+01 4.69051000e+00	N
atom  2.04252000e+00 2.68665000e+01 3.50211000e+00	Si
atom  4.03237000e+00 2.36427000e+01 4.59907000e+00	N
atom  3.22511000e+00 2.15250000e+01 6.11099000e+00	N
atom  3.63922000e+00 2.27973000e+01 7.19591000e+00	Si
atom  2.47609000e+00 2.28819000e+01 8.51624000e+00	N
atom  3.82415000e+00 2.46059000e+01 6.93472000e+00	N
atom  3.92680000e+00 2.52732000e+01 5.26373000e+00	Si
atom  2.93887000e+00 2.79628000e+01 8.18555000e+00	Si
atom  3.89481000e+00 2.81759000e+01 5.22928000e+00	Si
atom  3.16219000e+00 2.90588000e+01 9.59301000e+00	N
atom  2.77309000e+00 2.84801000e+01 6.54854000e+00	N
atom  3.10693000e+00 2.15957000e+01 1.19587000e+01	Si
atom  3.96826000e+00 2.11963000e+01 1.33866000e+01	N
atom  4.02213000e+00 2.26297000e+01 1.09864000e+01	N
atom  3.30338000e+00 2.71946000e+01 1.41098000e+01	Si
atom  2.12709000e+00 2.66199000e+01 1.30643000e+01	N
atom  3.15091000e+00 2.06669000e+01 1.51448000e+01	Si
atom  3.50872000e+00 2.05749000e+01 1.81380000e+01	Si
atom  3.22859000e+00 2.39659000e+01 1.67876000e+01	N
atom  2.83631000e+00 2.31658000e+01 1.83385000e+01	Si
atom  4.36492000e+00 2.23146000e+01 1.83436000e+01	N
atom  3.34503000e+00 2.56517000e+01 1.64295000e+01	Si
atom  2.25618000e+00 2.93606000e+01 1.79653000e+01	N
atom  3.33196000e+00 2.69045000e+01 1.75304000e+01	N
atom  2.33552000e+00 2.80385000e+01 1.52673000e+01	N