lattice_vector  3.99593445e+01 0.00000000e+00 0.00000000e+00
lattice_vector  2.44680417e-15 3.99593445e+01 0.00000000e+00
lattice_vector  2.44680417e-15 2.44680417e-15 3.99593445e+01
atom  4.09070000e-01 3.54363000e+00 1.21078000e+00	Si
atom  7.17677000e-01 1.96436000e+00 1.79860000e+00	N
atom  9.53023000e-01 5.11170000e+00 1.84928000e+00	N
atom  -1.55427000e-01 9.41152000e+00 1.09495000e+00	Si
atom  -1.02694000e-01 6.54885000e+00 2.39752000e+00	Si
atom  8.96269000e-01 7.41831000e+00 3.59759000e+00	N
atom  1.36348000e+00 9.09742000e+00 3.55134000e+00	Si
atom  -1.31892000e-01 7.68877000e+00 1.07753000e+00	N
atom  1.20985000e+00 1.01755000e+01 2.22921000e-01	N
atom  -4.17553000e-01 3.58917000e+00 8.46474000e+00	N
atom  6.59022000e-01 4.91832000e+00 8.43877000e+00	Si
atom  3.71989000e-01 2.21945000e+00 7.66392000e+00	Si
atom  9.99186000e-01 4.36865000e+00 5.49622000e+00	Si
atom  1.60850000e+00 1.53662000e+00 8.80071000e+00	N
atom  1.10172000e+00 2.78149000e+00 6.16418000e+00	N
atom  -4.18261000e-01 8.97192000e-01 1.00286000e+00	Si
atom  5.28297000e-01 7.10504000e+00 7.28262000e+00	Si
atom  -2.40955000e-01 6.39686000e+00 8.75692000e+00	N
atom  9.20716000e-01 5.50729000e+00 6.81972000e+00	N
atom  1.46848000e+00 9.80908000e+00 5.15063000e+00	N
atom  -9.04398000e-02 9.70898000e+00 5.94329000e+00	Si
atom  3.59877000e-01 1.01719000e+01 2.61005000e+00	N
atom  -4.77489000e-01 4.52231000e+00 4.60864000e+00	N
atom  6.40114000e-01 3.42518000e-01 4.78137000e+00	N
atom  4.42265000e-01 1.53281000e+00 1.19014000e+01	N
atom  1.02729000e+00 3.72445000e+00 1.43520000e+01	N
atom  8.94454000e-01 4.84827000e+00 1.28747000e+01	Si
atom  9.59606000e-02 8.30484000e-01 1.44730000e+01	N
atom  1.52090000e+00 1.40416000e+00 1.05442000e+01	Si
atom  -2.90205000e-01 2.57455000e+00 1.45548000e+01	Si
atom  3.74600000e-01 7.12149000e+00 1.95615000e+01	Si
atom  7.12360000e-02 7.80344000e+00 1.24381000e+01	Si
atom  7.86691000e-01 7.86530000e+00 1.08254000e+01	N
atom  5.27239000e-01 6.42479000e+00 1.35300000e+01	N
atom  1.06304000e+00 9.29707000e+00 1.27536000e+01	N
atom  1.83688000e+00 9.31920000e+00 1.11176000e+01	Si
atom  -1.15044000e-01 9.54114000e+00 1.63245000e+01	Si
atom  3.78526000e-01 4.25112000e+00 1.88471000e+01	Si
atom  1.30765000e+00 1.98967000e+00 1.67926000e+01	N
atom  1.14195000e+00 4.61187000e+00 1.73654000e+01	N
atom  1.72671000e+00 3.55914000e+00 1.60397000e+01	Si
atom  -4.34862000e-01 2.12383000e+00 1.72961000e+01	Si
atom  9.89679000e-01 2.35101000e-01 1.30069000e+01	Si
atom  6.02028000e-01 8.06338000e+00 1.56747000e+01	N
atom  1.75370000e+00 7.21261000e+00 1.84573000e+01	N
atom  -3.65476000e-01 4.26627000e+00 1.17459000e+01	N
atom  -3.70934000e-01 5.63936000e+00 1.95578000e+01	N
atom  -4.60627000e-01 7.08972000e+00 1.47873000e+01	Si
atom  6.14373000e-01 1.22273000e+00 2.08188000e+01	N
atom  1.44503000e+00 3.91475000e+00 2.16219000e+01	Si
atom  1.08506000e+00 1.30645000e+00 2.24937000e+01	Si
atom  -2.38996000e-01 3.67834000e+00 2.17843000e+01	N
atom  -3.20709000e-01 1.22802000e+00 2.34422000e+01	N
atom  3.97581000e-01 1.02281000e+01 2.96418000e+01	N
atom  1.08182000e-01 8.03691000e+00 2.45289000e+01	Si
atom  8.86254000e-01 7.46668000e+00 2.12129000e+01	N
atom  7.61547000e-01 6.51771000e+00 2.39884000e+01	N
atom  6.56939000e-01 9.04684000e+00 2.32175000e+01	N
atom  -1.55802000e-01 8.85296000e+00 2.16436000e+01	Si
atom  1.79855000e+00 6.76769000e+00 2.25942000e+01	Si
atom  3.58469000e-02 1.04165000e+01 2.09365000e+01	N
atom  -3.34272000e-01 3.50537000e+00 2.82591000e+01	N
atom  8.96625000e-01 4.62455000e+00 2.80053000e+01	Si
atom  1.02757000e+00 1.24430000e+00 2.88142000e+01	N
atom  5.59180000e-01 1.88173000e+00 2.61736000e+01	N
atom  6.51678000e-01 5.15226000e+00 2.50332000e+01	Si
atom  -1.97248000e-01 1.82011000e+00 2.77517000e+01	Si
atom  4.42132000e-01 7.49067000e+00 2.70922000e+01	Si
atom  8.46443000e-01 8.67631000e+00 2.59076000e+01	N
atom  5.78850000e-01 5.75748000e+00 2.66892000e+01	N
atom  1.71425000e+00 9.65595000e+00 2.87053000e+01	Si
atom  1.11534000e+00 5.43631000e+00 2.95185000e+01	N
atom  1.44104000e+00 7.93445000e+00 2.83727000e+01	N
atom  1.44078000e+00 1.03556000e+01 2.57766000e+01	Si
atom  1.69117000e+00 3.73664000e+00 1.98881000e+01	N
atom  1.31841000e+00 2.81469000e+00 3.40853000e+01	N
atom  5.22169000e-01 1.95947000e+00 3.03532000e+01	Si
atom  1.40452000e+00 3.28893000e+00 3.11815000e+01	N
atom  6.32598000e-01 8.85071000e-01 3.17130000e+01	N
atom  5.46831000e-01 4.75933000e+00 3.10227000e+01	Si
atom  4.37349000e-02 4.07916000e+00 3.39659000e+01	Si
atom  -2.27497000e-01 4.22201000e-01 3.45108000e+01	N
atom  4.23680000e-01 5.31634000e+00 3.27855000e+01	N
atom  4.36893000e-01 6.98956000e+00 3.26840000e+01	Si
atom  5.88233000e-01 7.55563000e+00 3.09938000e+01	N
atom  1.25337000e+00 9.49965000e+00 3.36621000e+01	Si
atom  4.02391000e-01 1.00048000e+01 3.21804000e+01	N
atom  -2.20320000e-01 9.00923000e+00 3.08287000e+01	Si
atom  1.71153000e+00 7.73585000e+00 3.35729000e+01	N
atom  1.64370000e+00 9.57569000e+00 3.86427000e+01	Si
atom  1.58827000e+00 4.73342000e+00 3.88804000e+01	Si
atom  1.10852000e+00 1.51055000e+00 3.51876000e+01	Si
atom  5.52151000e-01 2.03820000e+00 3.67047000e+01	N
atom  6.26481000e-01 2.02411000e+00 3.84614000e+01	Si
atom  -7.24364000e-02 5.93053000e-01 3.93385000e+01	N
atom  1.31906000e+00 3.23481000e+00 3.97055000e+01	N
atom  8.74500000e-02 5.49827000e+00 3.89647000e+01	N
atom  4.91776000e-02 7.09976000e+00 3.94048000e+01	Si
atom  1.72061000e-01 1.00595000e+01 3.77209000e+01	N
atom  2.89671000e-01 9.41656000e+00 3.50582000e+01	N
atom  1.51264000e+00 7.83187000e+00 3.88987000e+01	N
atom  1.71534000e+00 7.03380000e+00 2.98370000e+01	Si
atom  2.83039000e-01 1.24890000e+01 1.19864000e+00	N
atom  1.65350000e-01 1.28292000e+01 4.29072000e+00	N
atom  3.08736000e-01 1.41736000e+01 1.77133000e+00	Si
atom  5.58600000e-01 1.50009000e+01 2.59815000e-01	N
atom  1.59220000e+00 1.13381000e+01 1.50048000e+00	Si
atom  1.87296000e+00 1.42484000e+01 2.62638000e+00	N
atom  1.49921000e+00 1.99561000e+01 6.29437000e+00	Si
atom  7.25635000e-01 1.83326000e+01 6.36432000e+00	N
atom  1.39376000e+00 1.70701000e+01 7.40036000e+00	Si
atom  1.16191000e+00 1.87631000e+01 2.73385000e+00	N
atom  3.55750000e-01 1.56703000e+01 7.83368000e+00	N
atom  1.63777000e+00 1.26481000e+01 8.73322000e+00	N
atom  1.00200000e-01 1.08265000e+01 7.27338000e+00	N
atom  7.99192000e-01 1.41350000e+01 8.42258000e+00	Si
atom  5.21869000e-01 1.13178000e+01 8.88288000e+00	Si
atom  9.26667000e-01 1.53824000e+01 4.93240000e+00	N
atom  1.14428000e+00 1.37430000e+01 1.14867000e+01	Si
atom  1.16026000e+00 1.18889000e+01 1.26633000e+01	N
atom  9.01570000e-01 1.47892000e+01 1.28416000e+01	N
atom  -4.69600000e-02 1.13522000e+01 1.15716000e+01	Si
atom  9.65208000e-01 1.05949000e+01 1.03688000e+01	N
atom  1.18052000e+00 1.48689000e+01 1.01273000e+01	N
atom  1.19909000e+00 1.05468000e+01 1.38506000e+01	Si
atom  -2.97762000e-01 1.45819000e+01 1.41112000e+01	Si
atom  1.37595000e-01 1.72277000e+01 1.74367000e+01	Si
atom  1.31612000e+00 1.69836000e+01 1.41746000e+01	N
atom  -2.20414000e-01 1.97790000e+01 9.88917000e+00	N
atom  1.01041000e+00 1.65316000e+01 1.00875000e+01	Si
atom  -3.59254000e-01 1.74412000e+01 1.44270000e+01	Si
atom  1.80555000e+00 1.71439000e+01 1.15316000e+01	N
atom  1.25238000e+00 1.61366000e+01 1.67553000e+01	N
atom  1.34039000e-01 1.08744000e+01 1.51817000e+01	N
atom  9.29703000e-01 1.43906000e+01 1.70306000e+01	Si
atom  3.38501000e-01 1.37852000e+01 1.54955000e+01	N
atom  -2.41500000e-01 1.35035000e+01 1.79769000e+01	N
atom  1.63424000e+00 1.20123000e+01 1.97257000e+01	N
atom  1.05436000e+00 1.79319000e+01 1.87261000e+01	N
atom  1.91128000e+00 1.10476000e+01 1.82794000e+01	Si
atom  4.30880000e-01 1.01709000e+01 1.79091000e+01	N
atom  -5.06331000e-01 1.82470000e+01 1.60267000e+01	N
atom  -4.12985000e-01 1.30332000e+01 1.10035000e+01	N
atom  7.81469000e-01 1.47228000e+01 1.98760000e+01	N
atom  1.03927000e+00 1.22059000e+01 2.28270000e+01	N
atom  1.37800000e+00 1.13395000e+01 2.13734000e+01	Si
atom  1.23325000e+00 1.49541000e+01 2.26746000e+01	N
atom  -2.72153000e-01 1.20137000e+01 2.38745000e+01	Si
atom  1.59784000e+00 1.61672000e+01 2.68952000e+01	N
atom  1.93571000e+00 1.36523000e+01 2.34499000e+01	Si
atom  2.29192000e-01 1.54697000e+01 2.13104000e+01	Si
atom  1.42974000e+00 1.96701000e+01 2.08208000e+01	N
atom  5.69522000e-01 1.82705000e+01 2.03593000e+01	Si
atom  8.87819000e-01 1.71278000e+01 2.15278000e+01	N
atom  1.94378000e+00 1.71918000e+01 2.43775000e+01	N
atom  1.51221000e+00 1.40426000e+01 2.50986000e+01	N
atom  -1.09771000e-02 1.13948000e+01 2.55311000e+01	N
atom  2.78176000e-01 1.40715000e+01 2.95611000e+01	N
atom  -1.51327000e-01 1.42824000e+01 2.53492000e+01	Si
atom  9.78525000e-01 1.97945000e+01 2.66398000e+01	Si
atom  6.37960000e-01 1.69991000e+01 2.93940000e+01	N
atom  -8.50746000e-02 1.85984000e+01 2.59401000e+01	N
atom  7.22503000e-01 1.70291000e+01 2.55558000e+01	Si
atom  5.88083000e-01 1.13793000e+01 3.11872000e+01	Si
atom  1.05949000e+00 1.34799000e+01 3.47771000e+01	N
atom  9.42508000e-01 1.55626000e+01 3.02953000e+01	Si
atom  2.57113000e-01 1.84172000e+01 3.03179000e+01	Si
atom  1.11170000e+00 1.62942000e+01 3.18286000e+01	N
atom  7.15216000e-02 1.73180000e+01 3.43316000e+01	N
atom  1.58661000e+00 1.96995000e+01 3.03019000e+01	N
atom  -3.38509000e-01 1.67935000e+01 3.26887000e+01	Si
atom  5.02270000e-01 1.07079000e+01 3.62035000e+01	Si
atom  1.20919000e-01 1.41239000e+01 3.87542000e+01	Si
atom  1.52159000e+00 1.36761000e+01 3.79866000e+01	N
atom  1.73083000e+00 1.41491000e+01 3.63227000e+01	Si
atom  -3.13099000e-01 1.90904000e+01 3.63598000e+01	N
atom  1.16490000e+00 1.72973000e+01 3.90757000e+01	N
atom  1.36574000e+00 1.94510000e+01 3.63630000e+01	Si
atom  7.95946000e-01 1.56676000e+01 3.63231000e+01	N
atom  1.53161000e+00 1.67356000e+01 3.51775000e+01	Si
atom  -4.69520000e-01 1.67502000e+01 3.95753000e+01	Si
atom  4.80178000e-01 2.16759000e+01 1.23788000e+00	N
atom  7.59636000e-01 2.41833000e+01 2.22351000e-01	N
atom  1.47890000e+00 2.28418000e+01 4.35832000e+00	N
atom  -3.22515000e-01 2.32493000e+01 1.10970000e+00	Si
atom  4.19660000e-01 2.53997000e+01 3.69660000e+00	N
atom  2.45757000e-01 2.65894000e+01 1.16460000e+00	N
atom  1.08994000e+00 2.84284000e+01 4.11710000e+00	Si
atom  1.29197000e+00 2.61212000e+01 2.40422000e+00	Si
atom  -4.52339000e-01 2.93014000e+01 5.48027000e-01	N
atom  -5.04704000e-01 2.83068000e+01 3.20571000e+00	N
atom  1.19649000e+00 2.05381000e+01 9.33266000e+00	Si
atom  9.65337000e-02 2.07257000e+01 5.58308000e+00	N
atom  7.43375000e-01 2.31948000e+01 7.01695000e+00	N
atom  1.88289000e-01 2.24763000e+01 5.51522000e+00	Si
atom  3.03876000e-02 2.28443000e+01 8.54676000e+00	Si
atom  1.24885000e+00 2.23103000e+01 9.62541000e+00	N
atom  2.09740000e-02 2.56857000e+01 8.43254000e+00	Si
atom  9.75521000e-01 2.77038000e+01 5.71774000e+00	N
atom  -1.15897000e-01 2.90825000e+01 8.06765000e+00	N
atom  -4.60344000e-01 2.80786000e+01 6.67670000e+00	Si
atom  1.64094000e+00 2.55299000e+01 7.71849000e+00	N
atom  1.03525000e+00 2.83698000e+01 9.13850000e+00	Si
atom  4.72121000e-01 2.68130000e+01 9.68845000e+00	N
atom  1.86206000e+00 2.45071000e+01 4.09304000e+00	Si
atom  -6.55526000e-01 2.42827000e+01 9.20980000e+00	N
atom  2.95164000e-01 2.38715000e+01 1.17991000e+01	N
atom  1.66120000e+00 2.32546000e+01 1.09323000e+01	Si
atom  -3.24810000e-01 2.38811000e+01 1.33765000e+01	Si
atom  1.43654000e+00 2.97307000e+01 1.34667000e+01	N
atom  5.79936000e-01 2.66980000e+01 1.34748000e+01	Si
atom  4.86717000e-01 2.93392000e+01 1.19786000e+01	Si
atom  1.52344000e+00 2.91432000e+01 1.05966000e+01	N
atom  -6.71433000e-02 2.77403000e+01 1.22327000e+01	N
atom  1.75052000e-03 2.29372000e+01 1.48044000e+01	N
atom  8.60127000e-02 2.08009000e+01 1.89850000e+01	N
atom  1.60036000e+00 2.20554000e+01 1.70078000e+01	N
atom  1.57688000e+00 2.26758000e+01 1.53766000e+01	Si
atom  -8.77475000e-02 2.18204000e+01 1.76070000e+01	Si
atom  4.49541000e-01 2.40264000e+01 1.96303000e+01	Si
atom  1.72656000e+00 2.27538000e+01 1.96252000e+01	N
atom  4.15970000e-01 2.94135000e+01 1.48196000e+01	Si
atom  1.17006000e+00 2.99316000e+01 1.63443000e+01	N
atom  2.84681000e-01 2.55195000e+01 1.66955000e+01	N
atom  3.58327000e-01 2.78183000e+01 1.79169000e+01	N
atom  1.56581000e+00 2.96350000e+01 1.92674000e+01	N
atom  5.16286000e-01 2.76529000e+01 1.49821000e+01	N
atom  -2.37352000e-01 2.71248000e+01 1.63870000e+01	Si
atom  1.94665000e-01 2.68857000e+01 1.93618000e+01	Si
atom  1.24711000e+00 2.55086000e+01 1.92607000e+01	N
atom  1.77574000e+00 2.56575000e+01 1.76188000e+01	Si
atom  1.86215000e+00 2.87751000e+01 1.76385000e+01	Si
atom  1.78127000e+00 2.09757000e+01 1.96922000e+01	Si
atom  3.57910000e-01 2.48722000e+01 2.41465000e+01	N
atom  1.06372000e+00 2.09152000e+01 2.31959000e+01	N
atom  1.26096000e+00 2.67992000e+01 2.87350000e+01	N
atom  1.77165000e+00 2.16074000e+01 2.45728000e+01	Si
atom  8.15151000e-01 2.56451000e+01 2.75459000e+01	Si
atom  3.79043000e-01 2.50669000e+01 2.23620000e+01	Si
atom  1.21746000e-01 2.77405000e+01 2.08458000e+01	N
atom  1.48372000e+00 2.77909000e+01 2.19345000e+01	Si
atom  1.36800000e+00 2.83326000e+01 2.35821000e+01	N
atom  1.75080000e+00 2.60561000e+01 2.21556000e+01	N
atom  6.67862000e-01 2.40259000e+01 2.80242000e+01	N
atom  3.80391000e-01 2.06926000e+01 2.92323000e+01	Si
atom  1.18163000e+00 2.29473000e+01 2.54720000e+01	N
atom  1.59918000e+00 2.27385000e+01 2.71531000e+01	Si
atom  8.12364000e-01 2.12312000e+01 2.76349000e+01	N
atom  2.47746000e-01 2.37788000e+01 2.96636000e+01	Si
atom  1.90925000e+00 2.44992000e+01 2.49270000e+01	Si
atom  1.66929000e-01 3.01579000e+01 2.49085000e+01	N
atom  8.35594000e-01 2.81249000e+01 2.64673000e+01	N
atom  1.44002000e+00 2.90346000e+01 2.50979000e+01	Si
atom  1.97767000e+00 2.81838000e+01 2.78517000e+01	Si
atom  1.09345000e+00 3.04659000e+01 2.19811000e+01	N
atom  1.11656000e+00 2.12192000e+01 3.26239000e+01	N
atom  1.36517000e+00 2.46961000e+01 3.05137000e+01	N
atom  7.87728000e-02 2.21120000e+01 3.02277000e+01	N
atom  1.60806000e+00 2.18496000e+01 3.41810000e+01	Si
atom  -3.12092000e-01 2.18943000e+01 3.19044000e+01	Si
atom  -2.79339000e-01 2.41074000e+01 3.41599000e+01	Si
atom  1.08815000e+00 2.52584000e+01 3.42146000e+01	N
atom  6.78277000e-01 2.83138000e+01 3.09717000e+01	N
atom  1.14509000e+00 2.71195000e+01 3.43053000e+01	Si
atom  1.02087000e+00 2.65564000e+01 3.05392000e+01	Si
atom  -2.22994000e-01 2.79407000e+01 3.37309000e+01	N
atom  1.65568000e+00 2.96645000e+01 3.04884000e+01	Si
atom  9.84724000e-01 2.99860000e+01 3.98361000e+01	Si
atom  4.09948000e-01 2.27875000e+01 3.50678000e+01	N
atom  1.31558000e+00 2.25868000e+01 3.78838000e+01	N
atom  6.56391000e-02 2.30812000e+01 3.68102000e+01	Si
atom  -1.86819000e-01 2.48087000e+01 3.69799000e+01	N
atom  1.22466000e+00 2.72791000e+01 3.60289000e+01	N
atom  1.42697000e+00 2.63734000e+01 3.85232000e+01	N
atom  1.52623000e+00 2.90872000e+01 3.84534000e+01	N
atom  1.25642000e+00 2.88592000e+01 3.67211000e+01	Si
atom  2.44438000e-01 2.57398000e+01 3.95658000e+01	Si
atom  -2.17797000e-01 2.95016000e+01 3.62918000e+01	N
atom  1.27805000e+00 2.58146000e+01 3.68738000e+01	Si
atom  3.68672000e-01 3.33964000e+01 3.00991000e+00	Si
atom  1.25560000e+00 3.26372000e+01 4.31532000e+00	N
atom  6.58130000e-01 3.33783000e+01 1.23738000e+00	N
atom  2.91193000e-01 3.51650000e+01 3.01984000e+00	N
atom  8.31675000e-01 3.73662000e+01 1.25661000e+00	N
atom  1.56030000e-01 3.75072000e+01 3.84859000e+00	N
atom  1.26337000e+00 3.61096000e+01 4.15169000e+00	Si
atom  4.00890000e-01 3.91913000e+01 3.47452000e+00	Si
atom  -4.02317000e-01 3.66096000e+01 2.34186000e+00	Si
atom  1.18541000e+00 3.63739000e+01 7.87025000e+00	N
atom  1.35318000e-01 3.65638000e+01 -1.31594000e-01	Si
atom  -1.73237000e-02 3.17437000e+01 9.16736000e+00	N
atom  1.10209000e+00 3.34586000e+01 5.81401000e+00	Si
atom  5.84216000e-01 3.32286000e+01 8.38688000e+00	Si
atom  -3.86132000e-01 3.33704000e+01 6.75918000e+00	N
atom  -3.05191000e-01 3.46404000e+01 9.04493000e+00	N
atom  1.65755000e+00 3.51287000e+01 5.49839000e+00	N
atom  -3.96272000e-01 3.96068000e+01 6.03164000e+00	Si
atom  1.03120000e+00 3.56074000e+01 9.45163000e+00	Si
atom  -2.44652000e-01 3.68176000e+01 7.14004000e+00	Si
atom  4.67895000e-01 3.83038000e+01 6.58920000e+00	N
atom  5.54516000e-01 3.30945000e+01 1.15041000e+01	N
atom  8.16497000e-01 3.46600000e+01 1.36354000e+01	N
atom  1.82582000e-01 3.88950000e+01 1.88951000e+01	N
atom  6.72420000e-01 3.84673000e+01 1.30049000e+01	N
atom  9.77373000e-01 3.77378000e+01 1.45986000e+01	Si
atom  -3.23927000e-01 3.83033000e+01 1.03373000e+01	N
atom  1.37555000e-02 3.56183000e+01 1.73340000e+01	Si
atom  1.53922000e+00 3.67219000e+01 1.76449000e+01	N
atom  -3.28988000e-01 3.74699000e+01 1.18726000e+01	Si
atom  -3.95711000e-01 3.67752000e+01 1.47931000e+01	N
atom  1.71104000e+00 3.39085000e+01 1.48377000e+01	Si
atom  1.09240000e+00 3.49813000e+01 1.60496000e+01	N
atom  3.73016000e-01 3.29673000e+01 1.86703000e+01	Si
atom  -6.11599000e-02 3.46158000e+01 1.87780000e+01	N
atom  1.12245000e+00 3.24287000e+01 1.52163000e+01	N
atom  1.78689000e+00 3.24607000e+01 1.78254000e+01	N
atom  6.83285000e-01 3.87356000e+01 1.59817000e+01	N
atom  1.27349000e+00 3.84187000e+01 1.75897000e+01	Si
atom  1.97463000e+00 3.97144000e+01 1.09013000e+01	N
atom  -5.54851000e-01 3.50795000e+01 1.47775000e+01	Si
atom  -3.69562000e-01 3.42779000e+01 1.23115000e+01	Si
atom  1.36000000e+00 3.84921000e+01 9.81764000e+00	Si
atom  7.21257000e-01 3.46614000e+01 2.43126000e+01	N
atom  1.27905000e+00 3.30758000e+01 2.38273000e+01	Si
atom  1.55801000e+00 3.36742000e+01 2.09978000e+01	Si
atom  6.37678000e-01 3.06741000e+01 2.02872000e+01	Si
atom  7.99826000e-01 3.24101000e+01 2.01867000e+01	N
atom  2.70141000e-01 3.47269000e+01 2.14534000e+01	N
atom  -1.63225000e-01 3.04173000e+01 2.32192000e+01	Si
atom  -2.96889000e-01 3.22448000e+01 2.35760000e+01	N
atom  1.89416000e+00 3.67911000e+01 2.26978000e+01	N
atom  5.63626000e-01 3.56506000e+01 2.28768000e+01	Si
atom  7.55553000e-01 3.95163000e+01 2.04110000e+01	Si
atom  1.31783000e+00 3.84714000e+01 2.28449000e+01	Si
atom  -1.36434000e-01 3.89383000e+01 2.18326000e+01	N
atom  4.13800000e-01 3.83180000e+01 2.43740000e+01	N
atom  1.49114000e+00 3.83235000e+01 2.57691000e+01	Si
atom  -1.55624000e-01 3.32532000e+01 2.77176000e+01	Si
atom  1.09175000e+00 3.43237000e+01 2.71262000e+01	N
atom  4.18984000e-01 3.17374000e+01 2.70801000e+01	N
atom  -3.06477000e-01 3.31274000e+01 2.94509000e+01	N
atom  6.95359000e-01 3.89260000e+01 2.72169000e+01	N
atom  5.10645000e-01 3.58835000e+01 2.95595000e+01	N
atom  1.58244000e+00 3.95924000e+01 2.85423000e+01	Si
atom  8.63752000e-01 3.54622000e+01 2.58520000e+01	Si
atom  2.01651000e+00 3.15091000e+01 2.64520000e+01	Si
atom  -1.59453000e-01 3.74671000e+01 2.97828000e+01	Si
atom  9.97002000e-01 3.11822000e+01 3.09853000e+01	N
atom  9.67627000e-01 3.49458000e+01 3.25340000e+01	Si
atom  1.73786000e+00 3.34729000e+01 3.29843000e+01	N
atom  -4.97209000e-01 3.17243000e+01 3.03230000e+01	Si
atom  2.41920000e-01 3.59947000e+01 3.36803000e+01	N
atom  1.62329000e-01 3.87061000e+01 3.41493000e+01	Si
atom  1.13419000e+00 3.84601000e+01 3.26951000e+01	N
atom  1.51493000e+00 3.94106000e+01 3.13862000e+01	Si
atom  1.01127000e+00 3.86803000e+01 2.98895000e+01	N
atom  1.74923000e+00 3.15721000e+01 3.96583000e+01	N
atom  1.26042000e+00 3.35295000e+01 3.95208000e+01	Si
atom  7.98444000e-02 3.34906000e+01 3.81182000e+01	N
atom  1.37188000e+00 3.36689000e+01 3.69625000e+01	Si
atom  8.95210000e-01 3.24882000e+01 3.57088000e+01	N
atom  1.63539000e+00 3.50659000e+01 3.59401000e+01	N
atom  -2.33603000e-01 3.76445000e+01 3.85293000e+01	N
atom  6.38863000e-01 3.62511000e+01 3.52716000e+01	Si
atom  1.21341000e+00 3.53142000e+01 3.94680000e+01	N
atom  1.04488000e+00 3.79075000e+01 3.53995000e+01	N
atom  3.30162000e+00 3.52629000e+00 3.70402000e+00	Si
atom  3.46775000e+00 3.85978000e+00 1.98418000e+00	N
atom  2.59861000e+00 1.93578000e+00 3.84372000e+00	N
atom  3.25361000e+00 9.52761000e-01 1.06425000e+00	N
atom  2.38836000e+00 4.81124000e+00 4.45974000e+00	N
atom  2.20202000e+00 1.08744000e+00 2.43350000e+00	Si
atom  2.74725000e+00 2.20023000e+00 -5.32166000e-02	Si
atom  2.62606000e+00 5.30015000e+00 1.57672000e+00	Si
atom  3.33962000e+00 6.47823000e+00 2.49018000e+00	N
atom  2.36160000e+00 6.50191000e+00 3.97337000e+00	Si
atom  2.83733000e+00 9.36918000e+00 2.58244000e+00	N
atom  3.78052000e+00 8.22003000e+00 1.68020000e+00	Si
atom  3.22924000e+00 7.67417000e+00 4.85636000e+00	N
atom  1.87833000e+00 1.42304000e+00 5.27501000e+00	Si
atom  2.89311000e+00 5.33370000e-01 7.97295000e+00	Si
atom  2.18842000e+00 4.63676000e+00 9.20465000e+00	N
atom  3.18598000e+00 1.00499000e+00 6.31720000e+00	N
atom  3.85184000e+00 5.09875000e+00 8.63803000e+00	Si
atom  4.12702000e+00 9.22600000e+00 7.09729000e+00	N
atom  4.15259000e+00 6.79447000e+00 8.84183000e+00	N
atom  3.29741000e+00 8.15584000e+00 8.24645000e+00	Si
atom  2.98383000e+00 9.09454000e+00 9.64176000e+00	N
atom  1.93528000e+00 8.05235000e+00 7.22714000e+00	N
atom  2.83134000e+00 8.94156000e+00 5.92168000e+00	Si
atom  2.71857000e+00 5.66491000e+00 -1.10132000e-01	N
atom  4.21631000e+00 7.90896000e+00 2.10571000e-02	N
atom  3.05957000e+00 2.22936000e+00 1.08542000e+01	N
atom  2.95070000e+00 4.02251000e+00 1.06812000e+01	Si
atom  2.47519000e+00 5.09820000e+00 1.20559000e+01	N
atom  4.05908000e+00 4.08261000e-01 1.43330000e+01	Si
atom  3.00667000e+00 7.75493000e+00 1.37559000e+01	N
atom  3.53171000e+00 6.26124000e+00 1.28801000e+01	Si
atom  3.54826000e+00 9.30497000e+00 1.32862000e+01	Si
atom  2.27702000e+00 7.67691000e+00 1.53386000e+01	Si
atom  3.27435000e+00 3.51126000e+00 1.93015000e+01	Si
atom  3.40732000e+00 3.66773000e+00 1.57700000e+01	N
atom  3.66927000e+00 1.02824000e+00 1.59053000e+01	N
atom  3.58425000e+00 1.90451000e+00 1.85429000e+01	N
atom  2.77812000e+00 1.11353000e+00 1.73020000e+01	Si
atom  3.62008000e+00 5.02964000e+00 1.83998000e+01	N
atom  4.12876000e+00 5.18537000e+00 1.55920000e+01	Si
atom  3.01254000e+00 9.82737000e+00 1.90079000e+01	N
atom  3.00307000e+00 8.39508000e+00 1.79770000e+01	Si
atom  2.29138000e+00 5.81106000e+00 1.76097000e+01	Si
atom  2.87101000e+00 6.24166000e+00 1.59512000e+01	N
atom  2.91295000e+00 8.94808000e+00 1.63731000e+01	N
atom  4.22042000e+00 1.01432000e+01 1.01992000e+01	Si
atom  3.36482000e+00 1.03341000e+01 1.17795000e+01	N
atom  3.02944000e+00 3.19109000e+00 2.39983000e+01	Si
atom  2.02320000e+00 2.71095000e+00 2.26661000e+01	N
atom  3.38384000e+00 4.26070000e-01 2.43815000e+01	Si
atom  2.55638000e+00 5.27564000e+00 2.20899000e+01	N
atom  4.10768000e+00 4.60700000e+00 2.20188000e+01	Si
atom  3.09080000e+00 7.90132000e+00 2.28893000e+01	N
atom  2.43497000e+00 9.40813000e+00 2.31522000e+01	Si
atom  3.89321000e+00 9.93675000e+00 2.04675000e+01	Si
atom  2.85408000e+00 1.01031000e+01 2.46855000e+01	N
atom  3.93140000e+00 4.02803000e+00 2.79482000e+01	Si
atom  2.04519000e+00 4.14606000e+00 2.49999000e+01	N
atom  2.09967000e+00 2.78489000e+00 2.61301000e+01	Si
atom  2.32657000e+00 3.71915000e+00 2.75662000e+01	N
atom  3.42047000e+00 1.98435000e+00 2.53092000e+01	N
atom  3.05360000e+00 9.78544000e+00 2.98566000e+01	N
atom  3.28205000e+00 1.50958000e+00 3.27403000e+01	N
atom  3.59564000e+00 4.17522000e+00 3.25336000e+01	N
atom  2.29339000e+00 2.92685000e+00 3.26376000e+01	Si
atom  3.73468000e+00 5.81375000e-01 3.40886000e+01	Si
atom  3.14058000e+00 7.27657000e+00 3.44097000e+01	Si
atom  3.96073000e+00 1.00514000e+01 3.44440000e+01	Si
atom  3.38846000e+00 7.07952000e+00 2.99187000e+01	N
atom  2.62765000e+00 4.24713000e+00 3.76371000e+01	N
atom  2.33868000e+00 1.19311000e+00 3.85314000e+01	N
atom  2.46858000e+00 5.71550000e-01 3.53413000e+01	N
atom  4.06743000e+00 3.08933000e+00 3.78049000e+01	Si
atom  3.15138000e+00 5.55483000e+00 3.50955000e+01	N
atom  4.03583000e+00 8.63707000e+00 3.70555000e+01	Si
atom  3.66303000e+00 6.98392000e+00 3.74382000e+01	N
atom  3.06978000e+00 7.09941000e+00 3.90189000e+01	Si
atom  3.59109000e+00 5.38338000e+00 3.67402000e+01	Si
atom  3.11808000e+00 9.87481000e+00 3.78573000e+01	N
atom  3.59660000e+00 8.62349000e+00 3.53503000e+01	N
atom  4.19295000e+00 3.06233000e+00 3.94957000e+01	N
atom  3.65941000e+00 2.42665000e-01 3.77879000e+01	Si
atom  2.44732000e+00 1.18925000e+01 3.02927000e+00	N
atom  2.81914000e+00 1.24220000e+01 6.29328000e-01	N
atom  3.58862000e+00 1.29592000e+01 2.08440000e+00	Si
atom  3.74889000e+00 1.06931000e+01 3.21582000e+00	Si
atom  3.05697000e+00 1.55443000e+01 2.56256000e+00	Si
atom  3.39081000e+00 1.62529000e+01 4.09504000e+00	N
atom  2.66262000e+00 1.83951000e+01 2.04724000e+00	Si
atom  2.56295000e+00 1.67468000e+01 1.49623000e+00	N
atom  2.49826000e+00 1.93380000e+01 6.16172000e-01	N
atom  4.06752000e+00 1.86266000e+01 2.87804000e+00	N
atom  1.94390000e+00 1.60294000e+01 4.82714000e-02	Si
atom  3.14671000e+00 1.30024000e+01 9.54649000e+00	Si
atom  3.09765000e+00 1.36921000e+01 5.18226000e+00	N
atom  3.80634000e+00 1.43818000e+01 8.79368000e+00	N
atom  2.62124000e+00 1.53520000e+01 5.38436000e+00	Si
atom  2.85280000e+00 1.61897000e+01 6.88799000e+00	N
atom  1.88729000e+00 1.76220000e+01 9.01157000e+00	N
atom  1.83988000e+00 1.32000000e+01 4.05760000e+00	Si
atom  2.88160000e+00 1.32207000e+01 1.13372000e+01	N
atom  3.01933000e+00 1.18181000e+01 1.25446000e+01	Si
atom  2.87982000e+00 1.07012000e+01 1.42553000e+01	N
atom  2.01702000e+00 1.60872000e+01 1.28765000e+01	Si
atom  2.79124000e+00 2.02285000e+01 1.83764000e+01	N
atom  3.69951000e+00 1.53652000e+01 1.29639000e+01	N
atom  2.75070000e+00 1.81964000e+01 1.04850000e+01	Si
atom  2.36216000e+00 1.98391000e+01 1.04390000e+01	N
atom  2.14062000e+00 1.71293000e+01 1.56603000e+01	Si
atom  2.83708000e+00 1.16421000e+01 1.70383000e+01	N
atom  3.81019000e+00 1.30140000e+01 1.74034000e+01	Si
atom  2.46272000e+00 1.40244000e+01 1.79260000e+01	N
atom  3.48054000e+00 1.05332000e+01 1.58614000e+01	Si
atom  2.06854000e+00 1.36454000e+01 1.95506000e+01	Si
atom  3.75603000e+00 1.65497000e+01 1.53979000e+01	N
atom  3.89992000e+00 1.75248000e+01 1.81171000e+01	N
atom  2.49708000e+00 1.85096000e+01 1.80643000e+01	Si
atom  2.22317000e+00 1.87475000e+01 1.63428000e+01	N
atom  3.61326000e+00 1.33114000e+01 2.34620000e+01	N
atom  3.25384000e+00 1.37253000e+01 2.07824000e+01	N
atom  2.75931000e+00 1.04785000e+01 2.17781000e+01	N
atom  1.87141000e+00 1.72107000e+01 2.81906000e+01	Si
atom  3.64926000e+00 1.62603000e+01 2.20586000e+01	N
atom  3.18781000e+00 1.89733000e+01 2.29253000e+01	N
atom  2.77104000e+00 1.87594000e+01 2.45171000e+01	Si
atom  2.05923000e+00 1.65067000e+01 2.27905000e+01	Si
atom  3.32950000e+00 1.75563000e+01 2.92721000e+01	N
atom  2.23991000e+00 1.34408000e+01 2.76007000e+01	N
atom  2.18542000e+00 1.06915000e+01 2.73506000e+01	N
atom  2.42694000e+00 1.47109000e+01 2.64410000e+01	Si
atom  3.35175000e+00 1.21172000e+01 2.74447000e+01	Si
atom  4.02137000e+00 1.46682000e+01 2.59451000e+01	N
atom  4.09968000e+00 1.24720000e+01 2.90562000e+01	N
atom  2.52882000e+00 1.50127000e+01 2.99351000e+01	N
atom  2.21935000e+00 2.01514000e+01 2.54387000e+01	N
atom  2.93227000e+00 1.93016000e+01 2.91430000e+01	Si
atom  1.92424000e+00 1.34793000e+01 2.93225000e+01	Si
atom  1.75667000e+00 1.88716000e+01 2.78616000e+01	N
atom  3.41325000e+00 1.32844000e+01 3.34982000e+01	N
atom  3.45735000e+00 1.14559000e+01 3.02386000e+01	Si
atom  3.70620000e+00 1.48635000e+01 3.42957000e+01	Si
atom  2.27053000e+00 1.23347000e+01 3.45013000e+01	Si
atom  2.48305000e+00 1.07301000e+01 3.38126000e+01	N
atom  1.94735000e+00 1.22640000e+01 3.05063000e+01	N
atom  2.59922000e+00 1.61055000e+01 3.40044000e+01	N
atom  2.53051000e+00 1.86664000e+01 3.29252000e+01	N
atom  2.58986000e+00 1.69160000e+01 3.25426000e+01	Si
atom  2.99766000e+00 1.92153000e+01 3.45463000e+01	Si
atom  2.29009000e+00 2.01133000e+01 3.19258000e+01	Si
atom  3.97078000e+00 1.63524000e+01 3.16886000e+01	N
atom  3.85665000e+00 1.60660000e+01 3.00231000e+01	Si
atom  3.39221000e+00 1.44949000e+01 3.59752000e+01	N
atom  3.47959000e+00 1.13950000e+01 3.70528000e+01	Si
atom  2.87698000e+00 1.33912000e+01 3.90914000e+01	Si
atom  1.98724000e+00 1.15842000e+01 3.61602000e+01	N
atom  3.18807000e+00 1.50872000e+01 3.93545000e+01	N
atom  4.05201000e+00 1.28221000e+01 3.78603000e+01	N
atom  2.36514000e+00 1.85102000e+01 3.90322000e+01	Si
atom  3.96673000e+00 1.77723000e+01 3.88690000e+01	N
atom  2.30664000e+00 1.81306000e+01 3.57150000e+01	N
atom  2.00012000e+00 1.98269000e+01 3.79235000e+01	N
atom  2.97126000e+00 2.10950000e+01 2.50100000e+00	N
atom  2.85376000e+00 2.18317000e+01 4.12062000e+00	Si
atom  2.54154000e+00 2.49117000e+01 2.53913000e+00	N
atom  2.06611000e+00 2.10050000e+01 1.04695000e+00	Si
atom  3.59823000e+00 2.91881000e+01 5.25147000e+00	Si
atom  3.76878000e+00 2.97186000e+01 9.50883000e+00	N
atom  4.03239000e+00 2.31273000e+01 4.00222000e+00	N
atom  3.27325000e+00 2.69591000e+01 3.86958000e-01	N
atom  3.17620000e+00 2.80677000e+01 1.72577000e+00	Si
atom  2.35129000e+00 2.94498000e+01 9.38792000e-01	N
atom  2.15743000e+00 2.98848000e+01 4.45882000e+00	N
atom  2.09525000e+00 2.75175000e+01 3.04241000e+00	N
atom  3.76170000e+00 2.74452000e+01 5.83080000e+00	N
atom  2.71708000e+00 2.05607000e+01 5.23159000e+00	N
atom  4.07842000e+00 2.16806000e+01 9.50656000e+00	N
atom  3.47089000e+00 2.31782000e+01 7.31099000e+00	N
atom  3.48520000e+00 2.15031000e+01 7.89319000e+00	Si
atom  2.11541000e+00 2.41301000e+01 6.80494000e+00	Si
atom  2.06144000e+00 2.05387000e+01 7.79396000e+00	N
atom  2.61005000e+00 2.51636000e+01 5.46652000e+00	N
atom  3.93272000e+00 2.87803000e+01 8.03740000e+00	Si
atom  3.71873000e+00 2.99875000e+01 6.82346000e+00	N
atom  2.60178000e+00 2.60884000e+01 9.12860000e+00	Si
atom  2.39837000e+00 2.78151000e+01 8.14157000e+00	N
atom  2.22021000e+00 2.69021000e+01 6.58118000e+00	Si
atom  4.23426000e+00 2.45005000e+01 2.82421000e+00	Si
atom  2.63021000e+00 2.21877000e+01 1.19552000e+01	N
atom  3.25155000e+00 2.21469000e+01 1.36273000e+01	Si