lattice_vector  3.98839705e+01 0.00000000e+00 0.00000000e+00
lattice_vector  2.44218884e-15 3.98839705e+01 0.00000000e+00
lattice_vector  2.44218884e-15 2.44218884e-15 3.98839705e+01
atom  3.91130000e+00 2.16401000e+00 1.48448000e+00	Si
atom  3.42938000e+00 8.53543000e-01 2.34622000e+00	N
atom  7.48995000e-01 4.66396000e-01 3.08727000e+00	N
atom  9.14266000e+00 1.95067000e+00 2.45553000e+00	Si
atom  8.67336000e+00 1.42718000e+00 8.66089000e-01	N
atom  5.66100000e+00 1.85847000e+00 1.90002000e+00	N
atom  5.30799000e+00 8.63270000e-01 4.58689000e+00	N
atom  5.88253000e+00 1.24492000e+00 1.39399000e-01	Si
atom  5.01422000e+00 5.17454000e-01 2.92918000e+00	Si
atom  9.07566000e+00 5.96373000e-01 3.41243000e+00	N
atom  3.33923000e+00 2.71090000e+00 4.89880000e+00	N
atom  2.68696000e+00 1.87714000e+00 9.21929000e+00	Si
atom  2.27422000e+00 2.37843000e+00 6.21733000e+00	Si
atom  1.56077000e+00 7.56211000e-01 6.05606000e+00	N
atom  -2.47191000e-01 1.57015000e+00 9.32677000e+00	Si
atom  3.26253000e+00 2.57939000e+00 7.71170000e+00	N
atom  1.09806000e+00 2.63413000e+00 9.09896000e+00	N
atom  5.46391000e+00 2.50369000e+00 9.56033000e+00	N
atom  7.46797000e+00 1.97407000e+00 6.85454000e+00	Si
atom  5.86035000e+00 2.70691000e+00 6.63328000e+00	N
atom  8.69863000e+00 2.55399000e+00 5.73254000e+00	N
atom  5.07837000e+00 2.46854000e+00 5.04972000e+00	Si
atom  7.96917000e+00 2.06893000e+00 8.52185000e+00	N
atom  3.12153000e+00 1.88262000e+00 1.26934000e+01	Si
atom  3.13626000e+00 1.92743000e+00 1.09622000e+01	N
atom  4.86097000e+00 1.51672000e+00 1.08614000e+01	Si
atom  8.12146000e+00 6.18378000e-01 1.23567000e+01	Si
atom  4.88575000e+00 1.83808000e+00 1.26086000e+01	N
atom  5.93592000e+00 1.60372000e+00 1.39806000e+01	Si
atom  7.00898000e+00 9.24050000e-01 1.10293000e+01	N
atom  8.98496000e+00 2.04217000e+00 1.28170000e+01	N
atom  7.03974000e+00 2.95610000e-01 1.36327000e+01	N
atom  8.61742000e+00 2.66403000e+00 1.43910000e+01	Si
atom  1.83089000e+00 3.71305000e-01 1.70085000e+01	Si
atom  1.95011000e+00 2.01158000e+00 1.64362000e+01	N
atom  2.55459000e+00 9.17776000e-01 1.85769000e+01	N
atom  9.06709000e+00 1.87495000e+00 1.59736000e+01	N
atom  2.10797000e+00 2.63068000e+00 1.81404000e+01	Si
atom  5.01467000e+00 3.27939000e-01 1.78998000e+01	N
atom  7.79690000e+00 2.03066000e+00 1.71552000e+01	Si
atom  4.78423000e+00 1.15582000e+00 1.53071000e+01	N
atom  4.83225000e+00 1.87033000e+00 1.69710000e+01	Si
atom  7.60526000e+00 9.65652000e-01 1.84552000e+01	N
atom  2.65661000e+00 3.09480000e-01 1.33491000e+01	N
atom  7.10924000e+00 2.34620000e+00 9.96571000e+00	Si
atom  6.88253000e-01 2.10833000e+00 2.38571000e+01	Si
atom  4.11266000e+00 1.12695000e+00 2.42366000e+01	Si
atom  6.87908000e-01 4.74787000e-01 2.31767000e+01	N
atom  4.77355000e+00 1.61104000e+00 2.03032000e+01	N
atom  5.70644000e+00 1.17843000e+00 2.17208000e+01	Si
atom  8.72009000e+00 2.49693000e+00 2.04193000e+01	N
atom  8.25585000e+00 9.02357000e-01 2.00639000e+01	Si
atom  -7.10118000e-02 1.84828000e+00 2.68146000e+01	Si
atom  1.03585000e+00 2.25532000e+00 2.55289000e+01	N
atom  2.52945000e+00 2.32144000e+00 2.79130000e+01	N
atom  2.24818000e+00 8.50371000e-01 2.66284000e+01	Si
atom  2.25986000e+00 2.02793000e-01 2.93019000e+01	Si
atom  2.82079000e+00 3.05105000e-01 2.50343000e+01	N
atom  9.24299000e+00 3.72814000e-01 2.81665000e+01	N
atom  9.00492000e+00 9.15520000e-01 2.64050000e+01	Si
atom  5.29776000e+00 8.36543000e-01 2.55279000e+01	N
atom  6.24716000e+00 2.20232000e+00 2.60893000e+01	Si
atom  7.27914000e+00 9.75717000e-01 2.69059000e+01	N
atom  7.24971000e+00 2.07507000e+00 2.95331000e+01	N
atom  7.53690000e+00 5.88782000e-01 2.86314000e+01	Si
atom  9.43605000e+00 1.61554000e+00 2.32696000e+01	N
atom  6.40717000e+00 2.69693000e+00 2.21713000e+01	N
atom  -2.88876000e-01 3.26741000e-01 2.16713000e+01	Si
atom  4.69232000e+00 2.78182000e-01 2.28166000e+01	N
atom  6.94912000e-01 3.92889000e-01 2.73189000e+01	N
atom  1.84059000e+00 1.86749000e+00 3.36893000e+01	Si
atom  4.11691000e+00 2.15960000e+00 3.11987000e+01	Si
atom  1.61501000e-01 1.27202000e+00 3.13727000e+01	Si
atom  3.51460000e+00 7.18455000e-01 3.03735000e+01	N
atom  7.38133000e-01 6.49718000e-01 3.43921000e+01	N
atom  2.63556000e+00 4.84568000e-01 3.28489000e+01	N
atom  1.12681000e+00 1.35056000e+00 2.99098000e+01	N
atom  7.07728000e-01 2.50522000e+00 3.25432000e+01	N
atom  2.86970000e+00 2.47172000e+00 3.49053000e+01	N
atom  5.31851000e+00 1.13502000e+00 3.19868000e+01	N
atom  6.21585000e+00 1.93798000e+00 3.33070000e+01	Si
atom  6.76345000e+00 1.19203000e+00 3.09375000e+01	Si
atom  7.51480000e+00 2.10153000e+00 3.21888000e+01	N
atom  6.22473000e+00 8.21695000e-01 3.46599000e+01	N
atom  2.39596000e+00 1.54613000e+00 3.75230000e+01	N
atom  7.59055000e-01 1.58052000e+00 3.78552000e+01	Si
atom  3.52055000e+00 1.60795000e+00 3.62279000e+01	Si
atom  8.41782000e+00 2.40243000e+00 3.92480000e+01	Si
atom  4.23639000e+00 1.72530000e+00 3.97474000e+01	N
atom  8.83815000e+00 1.76378000e+00 3.76451000e+01	N
atom  6.68329000e+00 2.29794000e+00 3.89102000e+01	N
atom  8.83836000e+00 1.42568000e+00 3.50037000e+01	N
atom  3.43031000e+00 2.52255000e+00 3.84866000e+01	Si
atom  3.30284000e+00 3.59272000e+00 2.15322000e+00	N
atom  2.94004000e+00 4.05120000e+00 3.76204000e+00	Si
atom  1.30200000e+00 4.74098000e+00 3.73307000e+00	N
atom  5.73592000e+00 3.61679000e+00 3.99206000e+00	N
atom  6.69836000e+00 4.49584000e+00 1.15228000e+00	N
atom  6.46276000e+00 3.37432000e+00 2.43796000e+00	Si
atom  8.07614000e+00 3.19159000e+00 3.06597000e+00	N
atom  8.44739000e+00 3.85783000e+00 4.63280000e+00	Si
atom  1.77599000e-01 4.27234000e+00 4.96855000e+00	Si
atom  1.07118000e+00 4.00305000e+00 8.01324000e+00	Si
atom  1.07480000e+00 3.65357000e+00 6.31078000e+00	N
atom  -3.79545000e-01 5.01254000e+00 8.35048000e+00	N
atom  4.92610000e+00 3.18456000e+00 8.01219000e+00	Si
atom  4.83167000e+00 4.88743000e+00 8.09040000e+00	N
atom  2.86852000e+00 3.16639000e+00 1.38277000e+01	N
atom  3.77661000e+00 4.61142000e+00 1.39129000e+01	Si
atom  7.90964000e+00 3.68054000e+00 1.08407000e+01	N
atom  6.87876000e+00 3.07483000e+00 1.42670000e+01	N
atom  9.30226000e+00 3.09396000e+00 1.15366000e+01	Si
atom  6.79705000e+00 4.80796000e+00 1.38821000e+01	Si
atom  9.50420000e+00 4.14225000e+00 1.47512000e+01	N
atom  6.62225000e-01 4.26584000e+00 1.47984000e+01	N
atom  2.12555000e+00 3.50870000e+00 1.55201000e+01	Si
atom  3.60919000e+00 4.58014000e+00 1.73205000e+01	Si
atom  1.88588000e+00 4.29545000e+00 1.72489000e+01	N
atom  3.98493000e+00 3.01168000e+00 1.81239000e+01	N
atom  3.78177000e+00 4.51352000e+00 1.56435000e+01	N
atom  1.53985000e+00 3.16197000e+00 1.96801000e+01	N
atom  8.55549000e+00 3.65519000e+00 1.78553000e+01	N
atom  6.88486000e+00 4.10251000e+00 1.81379000e+01	Si
atom  6.21371000e+00 3.76103000e+00 1.96817000e+01	N
atom  6.32658000e+00 2.83114000e+00 1.70609000e+01	N
atom  5.24889000e+00 4.99207000e+00 1.30586000e+01	N
atom  4.55898000e+00 3.24106000e+00 1.98008000e+01	Si
atom  3.58734000e+00 4.08260000e+00 2.11133000e+01	N
atom  3.10170000e+00 3.85982000e+00 2.27878000e+01	Si
atom  7.47977000e-01 3.08245000e+00 2.11703000e+01	Si
atom  -6.37161000e-02 4.55684000e+00 2.14605000e+01	N
atom  1.65824000e+00 2.91560000e+00 2.26927000e+01	N
atom  4.28244000e+00 2.78454000e+00 2.38189000e+01	N
atom  6.51179000e+00 5.05862000e+00 2.92630000e+01	N
atom  5.80930000e+00 3.52225000e+00 2.35231000e+01	Si
atom  7.36424000e+00 3.44429000e+00 2.09674000e+01	Si
atom  9.37620000e+00 4.42893000e+00 2.44314000e+01	N
atom  7.87128000e+00 4.10800000e+00 2.73439000e+01	N
atom  8.00362000e+00 4.53207000e+00 2.55787000e+01	Si
atom  3.99094000e+00 3.12103000e+00 2.82676000e+01	Si
atom  1.22146000e+00 2.77800000e+00 2.89542000e+01	Si
atom  3.90115000e+00 4.94541000e+00 2.80693000e+01	N
atom  6.84926000e+00 3.38149000e+00 2.85650000e+01	Si
atom  4.79689000e+00 5.06982000e+00 2.96291000e+01	Si
atom  5.52785000e+00 2.83635000e+00 2.74928000e+01	N
atom  6.84593000e+00 3.34462000e+00 2.49362000e+01	N
atom  1.68695000e+00 3.74523000e+00 3.17733000e+01	Si
atom  3.82715000e+00 3.63391000e+00 3.39768000e+01	Si
atom  3.24193000e+00 3.14464000e+00 3.23227000e+01	N
atom  1.23174000e+00 4.05173000e+00 3.01641000e+01	N
atom  4.57040000e+00 3.26423000e+00 2.99057000e+01	N
atom  5.49008000e+00 3.41919000e+00 3.38509000e+01	N
atom  8.95996000e+00 4.10619000e+00 3.04891000e+01	N
atom  8.89676000e+00 2.77333000e+00 3.15747000e+01	Si
atom  7.85275000e+00 5.02755000e+00 3.37776000e+01	N
atom  8.73071000e-01 2.73672000e+00 3.93234000e+01	N
atom  1.47444000e+00 4.41908000e+00 3.93326000e+01	Si
atom  3.16802000e+00 4.16085000e+00 3.88810000e+01	N
atom  9.46077000e+00 4.49441000e+00 3.38088000e+01	Si
atom  7.04260000e+00 3.39632000e+00 3.61656000e+01	N
atom  6.08967000e+00 3.23947000e+00 3.75794000e+01	Si
atom  8.91813000e+00 4.01725000e+00 3.93922000e+01	N
atom  6.61359000e+00 4.36000000e+00 3.47734000e+01	Si
atom  6.00365000e+00 4.93161000e+00 3.82690000e+01	N
atom  8.64179000e+00 2.60257000e+00 3.62083000e+01	Si
atom  4.55413000e+00 2.61998000e+00 3.71274000e+01	N
atom  2.86238000e+00 6.67305000e+00 2.53959000e+00	N
atom  4.13160000e+00 6.69855000e+00 3.77307000e+00	Si
atom  1.27339000e+00 6.07480000e+00 2.48918000e+00	Si
atom  7.82769000e-01 5.52006000e+00 8.80487000e-01	N
atom  3.90004000e+00 5.24152000e+00 4.63429000e+00	N
atom  4.46305000e+00 6.23979000e+00 3.61886000e-01	N
atom  5.62796000e+00 6.14777000e+00 3.09882000e+00	N
atom  5.92388000e+00 6.08526000e+00 1.33363000e+00	Si
atom  7.17443000e+00 6.83883000e+00 4.36244000e-01	N
atom  5.75380000e+00 5.27628000e+00 4.64133000e+00	Si
atom  9.43447000e+00 7.26494000e+00 3.85315000e+00	N
atom  3.62831000e+00 5.83283000e+00 8.84636000e+00	Si
atom  6.01531000e-01 6.53265000e+00 8.51354000e+00	Si
atom  2.04121000e+00 5.46574000e+00 8.37761000e+00	N
atom  4.42098000e+00 7.30182000e+00 8.31258000e+00	N
atom  7.97887000e+00 6.47238000e+00 6.33403000e+00	Si
atom  7.50521000e+00 7.07189000e+00 9.42223000e+00	Si
atom  7.53190000e+00 5.18133000e+00 5.29573000e+00	N
atom  5.51611000e+00 6.30050000e+00 7.41540000e+00	Si
atom  7.16215000e+00 6.47459000e+00 7.85425000e+00	N
atom  5.61725000e+00 6.71200000e+00 5.75052000e+00	N
atom  2.76923000e+00 5.94876000e+00 1.33831000e+01	N
atom  3.72600000e+00 5.73577000e+00 1.05471000e+01	N
atom  2.34321000e+00 5.90621000e+00 1.15757000e+01	Si
atom  1.03992000e+00 5.46445000e+00 1.36921000e+01	Si
atom  3.80484000e-01 6.97502000e+00 1.42761000e+01	N
atom  1.70032000e-01 6.99042000e+00 1.01191000e+01	N
atom  8.83638000e-01 5.14284000e+00 1.19583000e+01	N
atom  5.08837000e+00 6.06739000e+00 1.16592000e+01	Si
atom  6.43248000e+00 6.21695000e+00 1.06343000e+01	N
atom  8.85149000e+00 6.40020000e+00 1.02087000e+01	N
atom  7.83728000e+00 5.37133000e+00 1.11460000e+01	Si
atom  8.06772000e+00 5.32866000e+00 1.28229000e+01	N
atom  7.00205000e+00 6.07350000e+00 1.50459000e+01	N
atom  1.44245000e+00 7.10655000e+00 1.68061000e+01	N
atom  9.86027000e-01 5.70520000e+00 1.77469000e+01	Si
atom  4.04868000e+00 5.60761000e+00 1.87565000e+01	N
atom  1.44378000e+00 6.11667000e+00 1.93706000e+01	N
atom  9.50262000e+00 5.90238000e+00 1.67919000e+01	N
atom  6.74211000e+00 5.77129000e+00 1.78399000e+01	N
atom  7.87326000e+00 6.35714000e+00 1.66240000e+01	Si
atom  5.56490000e+00 6.53210000e+00 1.89124000e+01	Si
atom  3.07946000e+00 6.79531000e+00 2.10327000e+01	N
atom  -6.00280000e-02 5.76363000e+00 2.42191000e+01	N
atom  1.63137000e+00 6.09448000e+00 2.45720000e+01	Si
atom  2.92803000e+00 5.19082000e+00 2.38434000e+01	N
atom  4.40486000e+00 6.07348000e+00 2.39590000e+01	Si
atom  2.87685000e+00 5.33498000e+00 2.01013000e+01	Si
atom  5.70542000e+00 6.57990000e+00 2.07183000e+01	N
atom  6.74148000e+00 6.10245000e+00 2.20035000e+01	Si
atom  9.35447000e+00 5.71610000e+00 2.06166000e+01	Si
atom  5.77132000e+00 5.25195000e+00 2.32378000e+01	N
atom  6.22362000e+00 6.99040000e+00 2.60534000e+01	Si
atom  1.54884000e-01 5.64872000e+00 2.83558000e+01	N
atom  5.86751000e-01 6.80634000e+00 2.72308000e+01	Si
atom  1.89864000e+00 6.13632000e+00 2.63353000e+01	N
atom  3.54705000e+00 6.26827000e+00 2.69914000e+01	Si
atom  8.81244000e+00 6.39367000e+00 2.89236000e+01	N
atom  4.71566000e+00 6.37727000e+00 2.57073000e+01	N
atom  7.75391000e+00 6.21778000e+00 2.61901000e+01	N
atom  7.45446000e+00 5.88302000e+00 2.79110000e+01	Si
atom  6.26127000e+00 7.36918000e+00 2.78411000e+01	N
atom  7.89000000e+00 5.07151000e+00 2.12774000e+01	N
atom  2.83635000e+00 6.33478000e+00 3.16994000e+01	Si
atom  1.89782000e+00 6.27288000e+00 3.41910000e+01	Si
atom  1.94973000e+00 6.82241000e+00 3.03394000e+01	N
atom  1.57355000e+00 5.35792000e+00 3.24676000e+01	N
atom  -9.51288000e-02 6.08363000e+00 3.25733000e+01	Si
atom  3.50270000e+00 5.28683000e+00 3.45013000e+01	N
atom  6.74096000e-01 5.73797000e+00 2.99932000e+01	Si
atom  4.39006000e+00 5.97156000e+00 3.10141000e+01	N
atom  4.95027000e-01 7.22396000e+00 3.37366000e+01	N
atom  8.07000000e+00 6.10412000e+00 3.78861000e+01	N
atom  4.66131000e+00 6.57124000e+00 3.45707000e+01	Si
atom  5.84818000e+00 6.93988000e+00 3.33237000e+01	N
atom  7.36994000e+00 6.55877000e+00 3.13433000e+01	N
atom  7.54942000e+00 6.59686000e+00 3.30862000e+01	Si
atom  8.07998000e+00 5.50694000e+00 3.02309000e+01	Si
atom  5.64548000e+00 7.08528000e+00 3.15159000e+01	Si
atom  1.20466000e+00 6.03642000e+00 3.58285000e+01	N
atom  8.78095000e-01 5.63541000e+00 3.82748000e+01	N
atom  1.99822000e+00 6.56516000e+00 3.72673000e+01	Si
atom  3.70788000e+00 6.51990000e+00 3.75352000e+01	N
atom  -2.47709000e-01 5.84207000e+00 3.69431000e+01	Si
atom  4.30508000e+00 5.41542000e+00 3.86983000e+01	Si
atom  8.93803000e-01 6.99552000e+00 3.95024000e+01	Si
atom  6.54765000e+00 6.20417000e+00 3.71628000e+01	Si
atom  5.90515000e+00 5.73903000e+00 3.55678000e+01	N
atom  7.51546000e+00 5.14596000e+00 3.94609000e+01	Si
atom  4.16065000e+00 8.43352000e+00 4.28960000e+00	N
atom  1.14480000e+00 8.80754000e+00 1.93260000e+00	Si
atom  2.00443000e+00 8.11333000e+00 5.23906000e-01	N
atom  2.67968000e+00 9.50079000e+00 4.62294000e+00	Si
atom  3.08529000e-01 7.45802000e+00 2.77381000e+00	N
atom  2.22070000e+00 9.62724000e+00 3.01311000e+00	N
atom  3.52681000e+00 7.43446000e+00 1.12884000e+00	Si
atom  4.76942000e+00 8.55662000e+00 1.55543000e+00	N
atom  5.03733000e+00 9.33543000e+00 2.96935000e+00	Si
atom  6.57434000e+00 8.81108000e+00 3.62561000e+00	N
atom  8.94805000e+00 8.90648000e+00 1.88775000e+00	N
atom  8.24773000e+00 8.47402000e+00 3.97749000e+00	Si
atom  8.16921000e+00 8.31671000e+00 3.18777000e-01	Si
atom  1.61550000e+00 8.44666000e+00 5.50233000e+00	N
atom  1.40200000e+00 8.86838000e+00 7.13738000e+00	Si
atom  1.95724000e+00 8.30358000e+00 8.71032000e+00	N
atom  3.63728000e+00 8.76830000e+00 8.72815000e+00	Si
atom  7.32763000e-02 7.64782000e+00 7.26758000e+00	N
atom  1.74214000e-01 7.39054000e+00 5.45676000e+00	Si
atom  7.28450000e+00 8.79330000e+00 9.35371000e+00	N
atom  5.81158000e+00 8.28935000e+00 5.17438000e+00	Si
atom  7.71500000e+00 8.06786000e+00 5.78123000e+00	N
atom  8.81423000e+00 9.61654000e+00 8.88059000e+00	Si
atom  7.67615000e+00 9.77234000e+00 6.06321000e+00	Si
atom  2.53359000e+00 8.73320000e+00 1.42663000e+01	N
atom  1.28137000e+00 8.34993000e+00 1.03615000e+01	Si
atom  -3.38762000e-02 9.38481000e+00 1.08441000e+01	N
atom  3.08168000e+00 7.65488000e+00 1.30654000e+01	Si
atom  2.19798000e+00 7.64041000e+00 1.16270000e+01	N
atom  -4.78500000e-01 8.43796000e+00 1.85808000e+01	N
atom  4.73187000e+00 7.62226000e+00 1.24856000e+01	N
atom  5.96632000e+00 9.11220000e+00 1.43225000e+01	N
atom  8.31097000e+00 8.36288000e+00 1.36379000e+01	N
atom  5.23733000e+00 9.21342000e+00 1.27074000e+01	Si
atom  7.12754000e+00 7.89110000e+00 1.48212000e+01	Si
atom  1.13757000e+00 8.49089000e+00 1.77866000e+01	Si
atom  2.36747000e+00 8.63123000e+00 1.89326000e+01	N
atom  4.04418000e+00 9.12181000e+00 1.90833000e+01	Si
atom  1.32212000e+00 8.00416000e+00 1.53370000e+01	Si
atom  1.06526000e+00 9.49674000e+00 1.63096000e+01	N
atom  7.60664000e+00 8.07575000e+00 1.64861000e+01	N
atom  6.79909000e+00 9.01663000e+00 1.76818000e+01	Si
atom  5.41046000e+00 8.22489000e+00 1.83901000e+01	N
atom  9.57323000e+00 8.65564000e+00 1.88561000e+01	Si
atom  8.17827000e+00 9.64440000e+00 1.86672000e+01	N
atom  6.36073000e-01 8.08528000e+00 2.13706000e+01	N
atom  3.21909000e+00 8.73537000e+00 2.39483000e+01	Si
atom  3.44805000e-01 8.11254000e+00 2.31707000e+01	Si
atom  1.84327000e+00 7.66269000e+00 2.39339000e+01	N
atom  4.39798000e+00 9.25993000e+00 2.07673000e+01	N
atom  1.69393000e+00 7.57322000e+00 2.02335000e+01	Si
atom  4.49673000e+00 7.62318000e+00 2.13999000e+01	Si
atom  1.15094000e-01 9.70606000e+00 2.38857000e+01	N
atom  4.56436000e+00 7.70984000e+00 2.32240000e+01	N
atom  6.10316000e+00 8.59943000e+00 2.34450000e+01	Si
atom  8.72054000e+00 8.37932000e+00 2.31525000e+01	Si
atom  7.26799000e+00 7.65670000e+00 2.26068000e+01	N
atom  9.45214000e+00 7.31090000e+00 2.43379000e+01	N
atom  3.65220000e+00 7.63018000e+00 2.80535000e+01	N
atom  1.04639000e+00 8.20113000e+00 2.81720000e+01	N
atom  2.41806000e+00 7.97936000e+00 2.91765000e+01	Si
atom  3.71929000e+00 9.46155000e+00 2.53876000e+01	N
atom  -6.94478000e-02 9.54509000e+00 2.82298000e+01	Si
atom  9.05871000e+00 7.44027000e+00 2.60351000e+01	Si
atom  5.17558000e+00 8.43870000e+00 2.85865000e+01	Si
atom  6.60031000e+00 8.33502000e+00 2.50937000e+01	N
atom  8.71364000e+00 9.11474000e+00 2.65151000e+01	N
atom  7.54397000e+00 9.74463000e+00 2.53793000e+01	Si
atom  9.42777000e+00 7.41126000e+00 2.00490000e+01	N
atom  3.34500000e+00 8.79407000e+00 3.38911000e+01	Si
atom  2.80057000e-01 8.91746000e+00 3.39470000e+01	Si
atom  2.87972000e+00 9.46822000e+00 3.00579000e+01	N
atom  6.09951000e+00 7.87554000e+00 3.72226000e+01	N
atom  1.82580000e+00 9.60893000e+00 3.41849000e+01	N
atom  8.62543000e+00 7.86921000e+00 3.34474000e+01	N
atom  5.32606000e+00 8.46970000e+00 3.04258000e+01	N
atom  1.42369000e+00 8.01561000e+00 3.79565000e+01	N
atom  2.27579000e+00 9.12985000e+00 3.89650000e+01	Si
atom  4.13297000e+00 8.09593000e+00 3.52931000e+01	N
atom  3.78880000e+00 9.18452000e+00 3.82192000e+01	N
atom  4.37579000e+00 8.07623000e+00 3.70756000e+01	Si
atom  7.44191000e+00 9.40438000e+00 3.90121000e+01	N
atom  8.55308000e+00 9.58403000e+00 3.63686000e+01	N
atom  7.08560000e+00 9.29697000e+00 3.73022000e+01	Si
atom  3.12886000e+00 7.29923000e+00 3.31071000e+01	N
atom  3.20476000e-01 1.13456000e+01 5.47964000e-01	Si
atom  2.75222000e-01 1.19609000e+01 4.09131000e+00	N
atom  -1.31754000e-01 9.82765000e+00 1.32230000e+00	N
atom  4.81968000e+00 1.10658000e+01 2.69925000e+00	N
atom  5.69635000e+00 1.17545000e+01 1.43674000e+00	Si
atom  7.34300000e+00 1.10314000e+01 1.43439000e+00	N
atom  8.96566000e+00 1.06032000e+01 1.68833000e+00	Si
atom  8.76553000e+00 1.00191000e+01 4.62438000e+00	N
atom  3.58911000e+00 1.08979000e+01 5.10591000e+00	N
atom  3.32535000e+00 1.00894000e+01 7.61261000e+00	N
atom  2.03100000e+00 1.12455000e+01 8.04781000e+00	Si
atom  6.79073000e-01 1.04285000e+01 7.29520000e+00	N
atom  4.57668000e+00 1.07717000e+01 6.56310000e+00	Si
atom  9.61250000e+00 1.18731000e+01 7.37664000e+00	Si
atom  5.88883000e+00 9.80593000e+00 6.14443000e+00	N
atom  6.68925000e+00 1.14675000e+01 9.51842000e+00	N
atom  8.56073000e+00 1.04084000e+01 7.37398000e+00	N
atom  5.38822000e+00 1.11906000e+01 -1.84051000e-01	N
atom  2.91589000e+00 1.04586000e+01 1.39490000e+01	Si
atom  3.36404000e+00 1.10314000e+01 1.08245000e+01	Si
atom  1.51925000e+00 1.14412000e+01 1.42424000e+01	N
atom  2.76754000e-01 1.09726000e+01 1.02273000e+01	Si
atom  3.76758000e+00 1.01632000e+01 1.24703000e+01	N
atom  -1.89558000e-01 1.17745000e+01 1.17660000e+01	N
atom  9.50109000e+00 1.05845000e+01 1.26854000e+01	N
atom  7.26037000e+00 1.13215000e+01 1.42798000e+01	N
atom  7.83849000e+00 1.00913000e+01 1.31309000e+01	Si
atom  6.20610000e+00 9.94660000e+00 1.02055000e+01	Si
atom  6.61304000e+00 9.92009000e+00 1.18781000e+01	N
atom  4.17811000e+00 1.10949000e+01 1.49740000e+01	N
atom  3.88749000e+00 1.06761000e+01 1.83967000e+01	N
atom  2.18046000e+00 1.12546000e+01 1.83155000e+01	Si
atom  5.24056000e-01 1.07983000e+01 1.88450000e+01	N
atom  8.27748000e-01 1.10755000e+01 1.58087000e+01	Si
atom  6.16178000e+00 1.04243000e+01 1.68331000e+01	N
atom  5.33874000e+00 1.15281000e+01 1.78687000e+01	Si
atom  5.89183000e+00 1.06296000e+01 1.51298000e+01	Si
atom  7.79971000e+00 1.12111000e+01 1.94185000e+01	Si
atom  4.49374000e+00 9.67275000e+00 1.00078000e+01	N
atom  1.94764000e+00 1.08944000e+01 9.80507000e+00	N
atom  9.18319000e+00 1.08361000e+01 1.00623000e+01	N
atom  1.22927000e+00 1.07288000e+01 2.30568000e+01	Si
atom  4.19404000e+00 1.04934000e+01 2.20087000e+01	Si
atom  7.11550000e-01 1.16825000e+01 2.17358000e+01	N
atom  2.79582000e+00 9.92720000e+00 2.28064000e+01	N
atom  4.24742000e+00 1.20149000e+01 2.11959000e+01	N
atom  3.61771000e-01 1.21293000e+01 2.00803000e+01	Si
atom  5.65180000e+00 1.02539000e+01 2.29326000e+01	N
atom  7.20975000e+00 1.09976000e+01 2.27775000e+01	Si
atom  7.43105000e+00 1.13408000e+01 2.10911000e+01	N
atom  8.06124000e+00 9.84914000e+00 2.37096000e+01	N
atom  9.42345000e-02 1.06069000e+01 2.68151000e+01	N
atom  2.16450000e+00 1.16907000e+01 2.85759000e+01	N
atom  1.93983000e-01 1.05305000e+01 2.95769000e+01	N
atom  7.42519000e+00 1.13542000e+01 2.91951000e+01	N
atom  8.84881000e+00 1.16746000e+01 2.57894000e+01	N
atom  9.55255000e+00 1.05536000e+01 2.69769000e+01	Si
atom  5.76457000e+00 1.13720000e+01 2.89468000e+01	Si
atom  4.77758000e+00 1.04765000e+01 2.63188000e+01	Si
atom  6.33577000e+00 1.09744000e+01 2.57067000e+01	N
atom  5.13875000e+00 1.00341000e+01 2.79259000e+01	N
atom  1.57155000e+00 1.21214000e+01 2.40228000e+01	N
atom  8.43491000e-01 1.20779000e+01 2.75387000e+01	Si
atom  2.44104000e+00 1.09790000e+01 3.31267000e+01	Si
atom  2.13212000e+00 1.16777000e+01 3.15200000e+01	N
atom  1.83207000e+00 1.08060000e+01 3.00097000e+01	Si
atom  3.76359000e+00 9.97298000e+00 3.26394000e+01	N
atom  -1.99736000e-01 1.18926000e+01 3.42883000e+01	N
atom  4.36614000e+00 9.78781000e+00 3.09628000e+01	Si
atom  5.27055000e+00 1.12381000e+01 3.06216000e+01	N
atom  8.98205000e+00 1.04940000e+01 3.35715000e+01	N
atom  8.59839000e+00 1.18733000e+01 3.25700000e+01	Si
atom  1.68317000e+00 1.17808000e+01 3.79540000e+01	Si
atom  7.77798000e-01 1.14274000e+01 3.65571000e+01	N
atom  1.40542000e+00 1.06163000e+01 3.91786000e+01	N
atom  3.37987000e+00 1.17836000e+01 3.76805000e+01	N
atom  -3.62064000e-01 9.73947000e+00 3.26059000e+01	N
atom  4.60939000e+00 1.06433000e+01 3.82725000e+01	Si
atom  8.78986000e+00 1.08395000e+01 3.52257000e+01	Si
atom  7.12962000e+00 1.10399000e+01 3.95449000e+01	Si
atom  5.95335000e+00 1.06661000e+01 3.71772000e+01	N
atom  6.11888000e+00 1.20884000e+01 3.62649000e+01	Si
atom  7.65047000e+00 1.21272000e+01 3.54277000e+01	N
atom  2.93786000e+00 1.32256000e+01 3.93256000e+00	N
atom  2.13634000e+00 1.36065000e+01 3.32810000e-01	Si
atom  1.33919000e+00 1.28722000e+01 3.16990000e+00	Si
atom  1.31730000e+00 1.24360000e+01 1.43638000e+00	N
atom  4.19737000e+00 1.20569000e+01 3.97373000e+00	Si
atom  5.81469000e+00 1.34984000e+01 1.64240000e+00	N
atom  5.55648000e+00 1.31544000e+01 4.32719000e+00	N
atom  8.18915000e+00 1.34021000e+01 3.46592000e+00	N
atom  6.48192000e+00 1.39368000e+01 3.11261000e+00	Si
atom  1.81887000e+00 1.29533000e+01 7.96513000e+00	N
atom  8.77772000e+00 1.30362000e+01 8.44947000e+00	N
atom  6.17894000e+00 1.41710000e+01 8.63637000e+00	N
atom  8.46524000e+00 1.35064000e+01 5.13437000e+00	Si
atom  5.54520000e+00 1.36468000e+01 6.05102000e+00	Si
atom  7.66032000e+00 1.42374000e+01 7.83188000e+00	Si
atom  7.18355000e+00 1.39080000e+01 6.20731000e+00	N
atom  5.44161000e+00 1.25540000e+01 8.82720000e+00	Si
atom  5.11775000e+00 1.23040000e+01 7.10966000e+00	N
atom  3.85529000e+00 1.36238000e+01 -1.33566000e-01	N
atom  3.48110000e+00 1.35146000e+01 1.11052000e+01	Si
atom  1.91061000e-01 1.39645000e+01 1.29508000e+01	N
atom  2.48943000e+00 1.23905000e+01 1.19416000e+01	N
atom  1.05365000e+00 1.24284000e+01 1.28925000e+01	Si
atom  4.24834000e+00 1.24024000e+01 1.00199000e+01	N
atom  4.70868000e+00 1.40152000e+01 1.22182000e+01	N
atom  8.06586000e+00 1.33869000e+01 1.11428000e+01	N
atom  8.27839000e+00 1.27644000e+01 1.47648000e+01	Si
atom  7.73804000e+00 1.30510000e+01 1.64415000e+01	N
atom  3.32424000e+00 1.39257000e+01 1.49772000e+01	N
atom  3.49494000e+00 1.24895000e+01 1.58845000e+01	Si
atom  1.93909000e+00 1.27980000e+01 1.93646000e+01	N
atom  1.69081000e+00 1.36129000e+01 1.78365000e+01	Si
atom  2.00834000e+00 1.20978000e+01 1.68642000e+01	N
atom  6.14333000e+00 1.38921000e+01 1.65151000e+01	Si
atom  9.29279000e+00 1.23583000e+01 1.90281000e+01	N
atom  4.86623000e+00 1.28825000e+01 1.69269000e+01	N
atom  8.94739000e+00 1.35314000e+01 1.76138000e+01	Si
atom  -4.92523000e-01 1.45427000e+01 1.06880000e+01	N
atom  2.11105000e-01 1.44224000e+01 1.77552000e+01	N
atom  5.97783000e+00 1.45265000e+01 1.48808000e+01	N
atom  6.32904000e+00 1.22032000e+01 1.90459000e+01	N
atom  8.19268000e+00 1.22488000e+01 9.84533000e+00	Si
atom  1.02046000e+00 1.31355000e+01 2.26888000e+01	Si
atom  3.14177000e+00 1.32469000e+01 2.05090000e+01	Si
atom  2.25135000e+00 1.39995000e+01 2.17857000e+01	N
atom  3.00609000e+00 1.42612000e+01 2.43976000e+01	N
atom  -3.37347000e-01 1.40402000e+01 2.31549000e+01	N
atom  4.36282000e+00 1.43452000e+01 1.99070000e+01	N
atom  -4.04541000e-01 1.28770000e+01 2.84800000e+01	N
atom  5.92405000e+00 1.24058000e+01 2.07794000e+01	Si
atom  7.83972000e+00 1.39385000e+01 2.27251000e+01	Si
atom  6.38659000e+00 1.39050000e+01 2.16511000e+01	N
atom  7.54575000e+00 1.24893000e+01 2.35758000e+01	N
atom  9.14360000e+00 1.40523000e+01 2.15809000e+01	N
atom  9.37533000e+00 1.39994000e+01 1.99024000e+01	Si
atom  2.70305000e+00 1.27236000e+01 2.51517000e+01	Si
atom  1.68766000e+00 1.31928000e+01 2.64698000e+01	N
atom  7.34389000e+00 1.23783000e+01 2.53135000e+01	Si
atom  8.88071000e+00 1.22172000e+01 2.95878000e+01	Si
atom  4.99725000e+00 1.33746000e+01 2.66092000e+01	Si
atom  9.31818000e+00 1.39172000e+01 2.94613000e+01	N
atom  5.39450000e+00 1.29082000e+01 2.82562000e+01	N
atom  6.50485000e+00 1.38383000e+01 2.58921000e+01	N
atom  5.14469000e+00 1.43407000e+01 2.92022000e+01	Si
atom  -4.14674000e-01 1.46066000e+01 2.86521000e+01	Si
atom  4.09255000e+00 1.21042000e+01 2.59418000e+01	N
atom  4.02512000e+00 1.33280000e+01 3.39661000e+01	Si
atom  2.92767000e+00 1.32281000e+01 3.13815000e+01	Si
atom  2.56853000e+00 1.23801000e+01 3.42227000e+01	N
atom  3.59965000e+00 1.40461000e+01 2.99602000e+01	N
atom  4.34162000e+00 1.30603000e+01 3.23161000e+01	N
atom  5.78316000e+00 1.27230000e+01 3.14641000e+01	Si
atom  7.04381000e+00 1.32942000e+01 3.42665000e+01	Si
atom  6.44893000e+00 1.39870000e+01 3.04269000e+01	N
atom  6.99919000e+00 1.25822000e+01 3.27224000e+01	N
atom  4.57733000e-01 1.38192000e+01 3.58901000e+01	N
atom  3.95693000e+00 1.33743000e+01 3.80420000e+01	Si
atom  1.40403000e+00 1.34451000e+01 3.86518000e+01	N
atom  1.14919000e+00 1.24467000e+01 3.51560000e+01	Si
atom  9.55018000e+00 1.32245000e+01 3.31557000e+01	N
atom  5.61228000e+00 1.32261000e+01 3.75129000e+01	N
atom  6.96663000e+00 1.39226000e+01 3.83273000e+01	Si
atom  9.44535000e+00 1.25472000e+01 3.92997000e+01	Si
atom  5.39762000e+00 1.30921000e+01 3.49942000e+01	N
atom  7.75039000e+00 1.24916000e+01 3.89571000e+01	N
atom  3.06957000e+00 1.60975000e+01 3.70222000e+00	N
atom  2.88886000e+00 1.63098000e+01 1.91120000e+00	Si
atom  1.86068000e+00 1.50025000e+01 1.27223000e+00	N
atom  1.63430000e-01 1.53233000e+01 2.06521000e+00	Si
atom  2.99084000e+00 1.47583000e+01 4.77816000e+00	Si
atom  6.30608000e-01 1.44690000e+01 3.46013000e+00	N
atom  4.59874000e+00 1.59237000e+01 1.50128000e+00	N
atom  6.63728000e+00 1.56624000e+01 3.28086000e+00	N
atom  8.12456000e+00 1.61129000e+01 3.96375000e+00	Si
atom  5.14371000e+00 1.45392000e+01 4.83300000e-01	Si
atom  3.37246000e-01 1.51346000e+01 5.03693000e+00	Si
atom  3.17546000e+00 1.58273000e+01 8.23478000e+00	N
atom  3.32638000e-01 1.56220000e+01 8.06346000e+00	N
atom  4.17091000e+00 1.63675000e+01 6.93466000e+00	Si
atom  1.81773000e+00 1.46876000e+01 7.67339000e+00	Si
atom  1.79506000e+00 1.49007000e+01 5.93502000e+00	N
atom  4.36634000e+00 1.49396000e+01 5.95637000e+00	N
atom  5.81718000e+00 1.66798000e+01 7.57813000e+00	N
atom  8.50402000e+00 1.56662000e+01 7.71093000e+00	N
atom  5.94132000e+00 1.58380000e+01 9.10596000e+00	Si
atom  9.35783000e+00 1.51098000e+01 5.00907000e+00	N
atom  9.08695000e+00 1.62926000e+01 6.23403000e+00	Si
atom  2.38528000e+00 1.48674000e+01 1.08859000e+01	N
atom  8.32695000e-01 1.50534000e+01 1.16534000e+01	Si
atom  4.23821000e+00 1.61024000e+01 1.34212000e+01	N
atom  8.62079000e-01 1.67028000e+01 1.24136000e+01	N
atom  4.53043000e+00 1.44550000e+01 1.38592000e+01	Si
atom  5.96130000e+00 1.52110000e+01 1.76350000e+01	N
atom  4.78211000e+00 1.61170000e+01 1.03698000e+01	N
atom  7.95118000e+00 1.50884000e+01 1.13633000e+01	Si
atom  6.79887000e+00 1.56617000e+01 1.25606000e+01	N
atom  7.21150000e+00 1.54744000e+01 1.41732000e+01	Si
atom  5.13806000e+00 1.57598000e+01 1.19803000e+01	Si
atom  7.38675000e+00 1.60561000e+01 1.00434000e+01	N
atom  8.43664000e+00 1.48845000e+01 1.86939000e+01	N
atom  2.91660000e+00 1.47503000e+01 1.75481000e+01	N
atom  4.34157000e+00 1.51944000e+01 1.84038000e+01	Si
atom  2.99086000e+00 1.53640000e+01 1.58521000e+01	Si
atom  1.39786000e+00 1.57693000e+01 1.53223000e+01	N
atom  1.03585000e-01 1.54061000e+01 1.63929000e+01	Si
atom  7.11787000e+00 1.60038000e+01 1.86339000e+01	Si
atom  8.64161000e+00 1.45033000e+01 1.42827000e+01	N
atom  3.08619000e+00 1.62132000e+01 9.91752000e+00	Si
atom  3.02244000e+00 1.50465000e+01 2.28651000e+01	Si
atom  2.03688000e+00 1.63450000e+01 2.35415000e+01	N
atom  4.38188000e+00 1.58527000e+01 2.23469000e+01	N
atom  6.37382000e+00 1.62158000e+01 2.02090000e+01	N
atom  7.86583000e+00 1.52150000e+01 2.39217000e+01	N
atom  5.33351000e+00 1.51819000e+01 2.11306000e+01	Si