lattice_vector  3.98744336e+01 0.00000000e+00 0.00000000e+00
lattice_vector  2.44160487e-15 3.98744336e+01 0.00000000e+00
lattice_vector  2.44160487e-15 2.44160487e-15 3.98744336e+01
atom  1.89151000e+00 1.39140000e+00 1.12618000e+00	N
atom  3.34771000e-01 1.52870000e+00 2.18978000e+00	Si
atom  3.97322000e+00 2.18102000e+00 3.14024000e+00	N
atom  4.01858000e+00 6.93576000e-01 4.08106000e+00	Si
atom  2.66218000e+00 2.61887000e+00 1.93991000e+00	Si
atom  8.05227000e+00 2.06967000e+00 3.17822000e+00	Si
atom  6.86145000e+00 1.85870000e+00 1.91093000e+00	N
atom  7.45116000e+00 1.32919000e+00 3.54005000e-01	Si
atom  8.19554000e+00 7.53575000e-01 4.23862000e+00	N
atom  5.40778000e+00 2.74473000e+00 2.35446000e+00	Si
atom  2.61570000e+00 6.88541000e-01 5.08730000e+00	N
atom  1.40309000e+00 9.57134000e-01 7.73322000e+00	N
atom  3.01192000e+00 1.49145000e+00 8.35152000e+00	Si
atom  1.24043000e+00 1.20569000e+00 6.04257000e+00	Si
atom  2.54653000e+00 2.46947000e+00 9.74376000e+00	N
atom  7.26288000e+00 4.86862000e-01 9.52583000e+00	N
atom  6.39195000e+00 1.98558000e+00 9.48700000e+00	Si
atom  4.94263000e+00 1.99199000e+00 8.42831000e+00	N
atom  7.38268000e+00 1.04831000e+00 6.89829000e+00	N
atom  1.03320000e+00 1.08667000e+00 1.30419000e+01	N
atom  2.59737000e+00 1.91625000e+00 1.27469000e+01	Si
atom  2.82497000e-01 7.57603000e-01 1.15241000e+01	Si
atom  -9.46383000e-02 2.25572000e+00 1.07617000e+01	N
atom  3.29949000e+00 6.64499000e-01 1.17933000e+01	N
atom  2.92634000e+00 2.18741000e+00 1.44354000e+01	N
atom  1.12915000e+00 5.62877000e-01 1.47196000e+01	Si
atom  5.27371000e+00 1.36962000e+00 1.35991000e+01	N
atom  8.58664000e+00 1.13891000e+00 1.20933000e+01	Si
atom  5.44009000e+00 2.00514000e+00 1.10789000e+01	N
atom  4.97628000e+00 6.10933000e-01 1.19812000e+01	Si
atom  7.76291000e+00 2.57867000e+00 1.24397000e+01	N
atom  6.06461000e+00 2.64258000e+00 1.25680000e+01	Si
atom  4.26695000e+00 1.23254000e+00 1.50965000e+01	Si
atom  2.70300000e+00 1.23625000e+00 1.93237000e+01	N
atom  7.98994000e-01 2.09086000e+00 1.58663000e+01	N
atom  -1.14075000e-01 1.80495000e+00 1.90858000e+01	N
atom  4.05753000e+00 2.25622000e+00 1.66084000e+01	N
atom  1.08919000e+00 5.29700000e-01 1.92477000e+01	Si
atom  4.15536000e+00 4.28285000e-01 1.89544000e+01	Si
atom  2.46361000e+00 2.80573000e+00 1.60025000e+01	Si
atom  5.72254000e+00 1.30211000e+00 1.94706000e+01	N
atom  7.02893000e+00 1.17607000e+00 1.83492000e+01	Si
atom  8.62449000e+00 1.61893000e+00 1.88343000e+01	N
atom  9.35014000e+00 2.43431000e+00 1.74630000e+01	Si
atom  6.71808000e+00 1.85033000e+00 1.67091000e+01	N
atom  1.96011000e+00 1.85307000e+00 2.19252000e+01	N
atom  2.55531000e+00 2.50083000e+00 2.04376000e+01	Si
atom  1.38858000e+00 2.48735000e-01 2.21386000e+01	Si
atom  7.40435000e+00 2.31100000e+00 2.23049000e+01	Si
atom  8.84460000e+00 1.40780000e+00 2.18316000e+01	N
atom  6.25785000e+00 9.14615000e-01 2.24343000e+01	N
atom  7.67170000e+00 5.73150000e-01 2.48167000e+01	N
atom  3.61917000e+00 1.58681000e+00 2.51995000e+01	N
atom  1.22613000e+00 1.15584000e+00 2.93454000e+01	N
atom  1.15562000e+00 9.81306000e-01 2.65125000e+01	N
atom  7.49060000e-01 1.95917000e+00 2.78431000e+01	Si
atom  2.02092000e+00 2.20929000e+00 2.57661000e+01	Si
atom  6.14064000e+00 2.58511000e+00 2.56415000e+01	N
atom  5.22841000e+00 9.62932000e-01 2.84174000e+01	Si
atom  6.60486000e+00 5.37529000e-01 2.94444000e+01	N
atom  7.76163000e+00 2.23256000e+00 2.51972000e+01	Si
atom  9.23426000e+00 2.58933000e+00 2.61339000e+01	N
atom  1.10260000e+00 1.17683000e+00 3.23378000e+01	Si
atom  2.77684000e+00 1.22383000e+00 3.01897000e+01	Si
atom  -3.55161000e-01 7.62409000e-01 3.14530000e+01	N
atom  2.47213000e+00 3.41903000e-01 3.16573000e+01	N
atom  4.54560000e+00 2.64691000e+00 3.46476000e+01	Si
atom  1.25250000e+00 5.18527000e-01 3.39119000e+01	N
atom  -1.36127000e-01 1.72112000e-01 2.98394000e+01	Si
atom  9.07953000e+00 1.73656000e+00 3.25902000e+01	Si
atom  6.60536000e+00 1.89918000e+00 3.17382000e+01	N
atom  7.51530000e+00 1.78107000e+00 3.02825000e+01	Si
atom  5.75773000e+00 1.33545000e+00 3.44675000e+01	N
atom  8.91500000e+00 1.04038000e+00 3.10348000e+01	N
atom  6.08641000e+00 6.56865000e-01 3.27909000e+01	Si
atom  8.32612000e+00 2.37590000e+00 3.41626000e+01	N
atom  2.16460000e+00 8.01496000e-01 3.93334000e+01	Si
atom  3.24216000e+00 2.00594000e+00 3.87626000e+01	N
atom  1.67623000e+00 1.31793000e+00 3.54958000e+01	Si
atom  5.97910000e-01 8.53764000e-01 3.84828000e+01	N
atom  1.94131000e-01 2.15046000e+00 3.59954000e+01	N
atom  7.92100000e-02 2.33174000e+00 3.77057000e+01	Si
atom  2.95869000e+00 2.41277000e+00 3.54259000e+01	N
atom  7.40174000e+00 1.21560000e+00 3.65856000e+01	N
atom  4.89708000e+00 2.32640000e+00 3.91106000e+01	Si
atom  8.25687000e+00 2.42352000e+00 3.91158000e+01	N
atom  8.74679000e+00 1.85844000e+00 3.75000000e+01	Si
atom  7.45360000e+00 1.02397000e+00 3.48932000e+01	Si
atom  6.06436000e+00 1.04321000e+00 3.91675000e+01	N
atom  2.54111000e+00 4.19688000e+00 9.01615000e-01	N
atom  1.01730000e+00 3.17581000e+00 2.68200000e+00	N
atom  1.14993000e+00 4.79133000e+00 1.85661000e+00	Si
atom  4.30164000e+00 4.74921000e+00 1.27679000e+00	Si
atom  -6.34744000e-02 3.29500000e+00 4.12058000e+00	Si
atom  4.66962000e+00 3.02805000e+00 8.16249000e-01	N
atom  7.87500000e+00 3.62201000e+00 3.88096000e+00	N
atom  5.60496000e+00 4.45557000e+00 2.65899000e+00	N
atom  7.79759000e+00 4.85123000e+00 9.28346000e-01	N
atom  7.14733000e+00 5.07928000e+00 3.19370000e+00	Si
atom  5.34006000e-01 3.56131000e+00 8.24742000e+00	N
atom  1.47416000e+00 3.67647000e+00 6.77205000e+00	Si
atom  3.04720000e+00 2.90520000e+00 7.21389000e+00	N
atom  8.64655000e-01 2.75102000e+00 5.49391000e+00	N
atom  8.94600000e+00 3.24390000e+00 6.34094000e+00	N
atom  4.62920000e+00 4.26427000e+00 9.48642000e+00	N
atom  7.48341000e+00 3.12003000e+00 8.81459000e+00	N
atom  8.40551000e+00 4.61362000e+00 9.33350000e+00	Si
atom  9.07236000e+00 4.37387000e+00 4.95620000e+00	Si
atom  4.52339000e+00 3.66666000e+00 7.79423000e+00	Si
atom  7.39070000e+00 2.84488000e+00 7.09966000e+00	Si
atom  5.95956000e+00 3.81838000e+00 6.74570000e+00	N
atom  3.40464000e+00 3.42605000e+00 1.20656000e+01	N
atom  3.97316000e+00 3.03861000e+00 1.04683000e+01	Si
atom  1.12976000e+00 4.74031000e+00 1.07221000e+01	N
atom  4.16351000e+00 4.86565000e+00 1.27499000e+01	Si
atom  1.01576000e+00 3.27183000e+00 9.86746000e+00	Si
atom  5.73411000e+00 4.28749000e+00 1.30495000e+01	N
atom  8.61049000e+00 4.06859000e+00 1.27584000e+01	Si
atom  8.45217000e+00 4.72960000e+00 1.11374000e+01	N
atom  8.06851000e+00 4.81229000e+00 1.43394000e+01	N
atom  2.22032000e-01 5.04357000e+00 1.81224000e+01	N
atom  -4.87242000e-02 3.55532000e+00 1.89674000e+01	Si
atom  2.41584000e+00 4.45999000e+00 1.63303000e+01	N
atom  -1.52964000e-01 4.68153000e+00 1.55435000e+01	N
atom  5.43401000e+00 4.51254000e+00 1.58346000e+01	N
atom  5.54274000e+00 3.10615000e+00 1.68640000e+01	Si
atom  9.21202000e+00 4.91114000e+00 1.56932000e+01	Si
atom  6.05141000e+00 3.88729000e+00 1.84206000e+01	N
atom  8.57407000e+00 4.11446000e+00 1.71547000e+01	N
atom  4.13098000e+00 3.29199000e+00 2.06218000e+01	N
atom  3.36422000e-02 4.24291000e+00 2.43774000e+01	Si
atom  2.46361000e+00 3.13399000e+00 2.30696000e+01	Si
atom  4.18698000e+00 3.40293000e+00 2.32612000e+01	N
atom  2.35750000e+00 4.73070000e+00 2.22559000e+01	N
atom  1.48456000e+00 3.23345000e+00 2.44474000e+01	N
atom  4.09560000e+00 4.47165000e+00 2.18807000e+01	Si
atom  1.49404000e+00 3.76912000e+00 1.98944000e+01	N
atom  6.99744000e+00 3.38858000e+00 2.10131000e+01	N
atom  8.28235000e+00 4.53714000e+00 2.08196000e+01	Si
atom  7.86914000e+00 3.18957000e+00 2.36936000e+01	N
atom  8.01202000e+00 4.90187000e+00 2.37466000e+01	Si
atom  4.66154000e+00 2.92674000e+00 2.47962000e+01	Si
atom  5.72149000e+00 3.04220000e+00 1.98802000e+01	Si
atom  2.00630000e+00 3.12775000e+00 2.72863000e+01	N
atom  4.37759000e+00 4.27523000e+00 2.59656000e+01	N
atom  2.26004000e+00 4.80113000e+00 2.78470000e+01	Si
atom  3.45547000e+00 4.90734000e+00 2.91252000e+01	N
atom  4.56814000e+00 3.62173000e+00 2.95885000e+01	Si
atom  5.19241000e+00 2.74206000e+00 2.83041000e+01	N
atom  8.16092000e+00 3.19572000e+00 2.94664000e+01	N
atom  7.89036000e+00 4.64922000e+00 2.85602000e+01	Si
atom  6.89948000e+00 4.79680000e+00 2.71544000e+01	N
atom  5.66473000e+00 3.63732000e+00 2.69209000e+01	Si
atom  3.14591000e+00 3.47974000e+00 3.20477000e+01	Si
atom  -1.40867000e-03 3.78631000e+00 3.22308000e+01	Si
atom  1.54309000e+00 2.90538000e+00 3.22312000e+01	N
atom  4.51516000e+00 3.19192000e+00 3.30913000e+01	N
atom  3.50948000e+00 2.70175000e+00 3.05391000e+01	N
atom  8.39446000e+00 4.12669000e+00 3.38923000e+01	Si
atom  5.63102000e+00 4.34349000e+00 3.07062000e+01	N
atom  5.95432000e+00 3.41213000e+00 3.21738000e+01	Si
atom  7.10482000e+00 4.72528000e+00 3.27431000e+01	N
atom  9.37212000e+00 3.47795000e+00 3.22456000e+01	N
atom  3.20600000e+00 4.04733000e+00 3.62553000e+01	Si
atom  2.49322000e+00 3.57313000e+00 3.91513000e+01	Si
atom  7.83410000e-01 3.55544000e+00 3.87102000e+01	N
atom  3.42093000e+00 4.49349000e+00 3.79545000e+01	N
atom  -3.40567000e-01 4.76567000e+00 3.92636000e+01	Si
atom  7.56895000e+00 3.94900000e+00 3.92732000e+01	Si
atom  5.90536000e+00 3.61599000e+00 3.85688000e+01	N
atom  4.92904000e+00 3.86656000e+00 3.58395000e+01	N
atom  7.65321000e+00 4.55008000e+00 3.55483000e+01	N
atom  8.94239000e+00 4.59950000e+00 3.66921000e+01	Si
atom  1.10422000e+00 6.08622000e+00 3.05767000e+00	N
atom  3.80943000e+00 6.29693000e+00 2.19502000e+00	N
atom  4.32777000e-01 5.76659000e+00 5.57650000e-01	N
atom  4.02291000e+00 7.22619000e+00 3.89993000e-01	Si
atom  2.18254000e+00 7.30497000e+00 2.47561000e+00	Si
atom  6.92225000e-01 7.44966000e+00 2.34722000e-01	Si
atom  4.09393000e+00 5.53401000e+00 4.83770000e+00	N
atom  -4.77470000e-01 6.36738000e+00 3.77141000e+00	Si
atom  5.08071000e+00 6.12264000e+00 3.47016000e+00	Si
atom  6.77164000e+00 6.79423000e+00 2.33158000e+00	N
atom  6.74828000e+00 6.29366000e+00 7.52252000e-01	Si
atom  8.86919000e+00 5.66881000e+00 3.11556000e+00	N
atom  5.14261000e+00 5.83149000e+00 1.26070000e-01	N
atom  9.42417000e+00 5.31170000e+00 1.53443000e+00	Si
atom  6.60884000e+00 5.82010000e+00 4.69170000e+00	N
atom  4.06414000e+00 5.41429000e+00 7.30043000e+00	N
atom  3.02015000e+00 6.11682000e+00 6.12748000e+00	Si
atom  4.10699000e+00 5.85518000e+00 8.97143000e+00	Si
atom  2.49155000e+00 6.29841000e+00 9.20660000e+00	N
atom  5.14057000e-03 6.38597000e+00 6.73166000e+00	Si
atom  1.46999000e+00 5.38914000e+00 6.41718000e+00	N
atom  -3.37860000e-01 7.25152000e+00 5.27305000e+00	N
atom  4.99470000e-01 7.52055000e+00 7.98357000e+00	N
atom  6.19781000e+00 6.89428000e+00 6.82525000e+00	N
atom  9.27912000e+00 5.76386000e+00 6.02350000e+00	N
atom  7.58206000e+00 6.16506000e+00 9.15396000e+00	N
atom  5.49985000e+00 5.35586000e+00 6.07906000e+00	Si
atom  5.04668000e+00 7.24867000e+00 9.39270000e+00	N
atom  6.55764000e+00 7.33149000e+00 8.42174000e+00	Si
atom  2.38326000e+00 6.76189000e+00 1.38727000e+01	Si
atom  1.25968000e+00 6.18369000e+00 1.26667000e+01	N
atom  3.94918000e+00 6.16228000e+00 1.16157000e+01	N
atom  2.25296000e+00 6.07420000e+00 1.10210000e+01	Si
atom  3.56732000e+00 5.56207000e+00 1.41992000e+01	N
atom  4.06372000e-02 5.78386000e+00 1.41870000e+01	Si
atom  -5.95316000e-02 5.54814000e+00 1.16546000e+01	Si
atom  8.16513000e+00 6.42418000e+00 1.08381000e+01	Si
atom  6.29581000e+00 6.75754000e+00 1.46018000e+01	N
atom  6.85624000e+00 7.01719000e+00 1.17663000e+01	N
atom  5.24757000e+00 7.19138000e+00 1.11027000e+01	Si
atom  6.33127000e+00 5.04119000e+00 1.44610000e+01	Si
atom  1.27040000e+00 6.61690000e+00 1.52344000e+01	N
atom  1.16838000e-01 6.54399000e+00 1.88213000e+01	Si
atom  4.13537000e+00 6.58155000e+00 1.68932000e+01	N
atom  3.03428000e+00 7.10033000e+00 1.81598000e+01	Si
atom  1.03201000e+00 5.43763000e+00 1.66093000e+01	Si
atom  1.31549000e+00 7.19615000e+00 1.77385000e+01	N
atom  3.89736000e+00 5.19241000e+00 1.58111000e+01	Si
atom  2.96629000e+00 6.33093000e+00 1.97589000e+01	N
atom  5.66387000e+00 7.17001000e+00 1.61946000e+01	Si
atom  7.99809000e+00 5.66614000e+00 1.95265000e+01	N
atom  9.26831000e+00 6.89989000e+00 1.93123000e+01	Si
atom  6.95698000e+00 6.43245000e+00 1.71965000e+01	N
atom  7.33692000e+00 4.95724000e+00 1.80825000e+01	Si
atom  3.04197000e-01 6.13944000e+00 2.05811000e+01	N
atom  3.67426000e+00 6.36705000e+00 2.42155000e+01	N
atom  2.19818000e+00 6.13259000e+00 2.33813000e+01	Si
atom  8.73412000e-01 6.00514000e+00 2.45025000e+01	N
atom  1.82583000e+00 5.31606000e+00 2.06495000e+01	Si
atom  3.56638000e+00 7.19020000e+00 2.11687000e+01	Si
atom  2.05341000e+00 7.18905000e+00 2.20076000e+01	N
atom  4.69352000e+00 6.02976000e+00 2.18278000e+01	N
atom  5.25821000e+00 6.43918000e+00 2.33965000e+01	Si
atom  6.46295000e+00 5.49496000e+00 2.41432000e+01	N
atom  8.71269000e+00 5.45801000e+00 2.22333000e+01	N
atom  2.71252000e+00 6.27137000e+00 2.69707000e+01	N
atom  4.00291000e+00 5.96410000e+00 2.58652000e+01	Si
atom  6.87605000e-01 5.19238000e+00 2.85432000e+01	N
atom  6.97818000e+00 5.96123000e+00 2.58317000e+01	Si
atom  5.46346000e+00 6.82503000e+00 2.62912000e+01	N
atom  8.80856000e+00 5.30131000e+00 2.52457000e+01	N
atom  7.74313000e+00 5.95598000e+00 2.96249000e+01	N
atom  9.38572000e+00 7.02413000e+00 2.51845000e+01	Si
atom  1.72102000e+00 6.00278000e+00 3.25852000e+01	Si
atom  1.41710000e+00 6.46679000e+00 3.07966000e+01	N
atom  3.06285000e+00 6.12461000e+00 3.03281000e+01	Si
atom  3.14369000e+00 5.23373000e+00 3.19144000e+01	N
atom  7.06121000e-02 5.84460000e+00 3.00250000e+01	Si
atom  4.03184000e-01 5.10000000e+00 3.32554000e+01	N
atom  1.76975000e+00 7.38949000e+00 3.35524000e+01	N
atom  9.31630000e+00 6.32518000e+00 3.17179000e+01	N
atom  6.86179000e+00 5.46944000e+00 3.10485000e+01	Si
atom  6.72409000e+00 6.31981000e+00 3.33172000e+01	Si
atom  6.21893000e+00 6.99769000e+00 3.17946000e+01	N
atom  5.54103000e+00 6.12633000e+00 3.45008000e+01	N
atom  9.37721000e+00 6.98600000e+00 3.32697000e+01	Si
atom  8.81113000e+00 7.18578000e+00 3.02591000e+01	Si
atom  2.37136000e+00 5.29160000e+00 3.54942000e+01	N
atom  1.74528000e+00 6.87396000e+00 3.52411000e+01	Si
atom  -6.51375000e-02 6.94363000e+00 3.55837000e+01	N
atom  9.69399000e-01 7.51280000e+00 3.83240000e+01	N
atom  -4.13290000e-01 7.01444000e+00 3.73586000e+01	Si
atom  7.74857000e+00 7.37087000e+00 3.97622000e+01	N
atom  6.08959000e+00 5.13337000e+00 3.58280000e+01	Si
atom  5.01646000e+00 5.10897000e+00 3.83842000e+01	Si
atom  9.04345000e+00 6.47157000e+00 3.89202000e+01	Si
atom  5.70024000e+00 6.11488000e+00 3.72314000e+01	N
atom  8.32741000e+00 5.05632000e+00 3.82001000e+01	N
atom  2.87506000e+00 8.73008000e+00 3.19765000e+00	N
atom  5.59059000e-01 8.36299000e+00 2.16790000e+00	N
atom  3.94881000e+00 8.69123000e+00 4.55939000e+00	Si
atom  2.32998000e+00 7.65305000e+00 6.97596000e-01	N
atom  1.28242000e+00 9.63459000e+00 3.08451000e+00	Si
atom  5.21747000e+00 8.35355000e+00 1.07679000e+00	N
atom  6.12287000e+00 8.55661000e+00 2.62144000e+00	Si
atom  7.72504000e+00 9.07493000e+00 2.78599000e+00	N
atom  5.33360000e+00 7.87636000e+00 4.02376000e+00	N
atom  9.32237000e+00 9.33382000e+00 4.55486000e-01	N
atom  8.43759000e+00 7.39563000e+00 3.04791000e+00	Si
atom  3.11790000e+00 9.04997000e+00 8.45339000e+00	N
atom  3.06671000e+00 7.82399000e+00 5.91209000e+00	N
atom  1.82075000e+00 7.89992000e+00 8.96887000e+00	Si
atom  3.15709000e+00 9.40657000e+00 6.68111000e+00	Si
atom  7.66585000e-01 9.58969000e+00 9.32326000e+00	N
atom  8.33244000e+00 7.89295000e+00 4.80941000e+00	N
atom  6.66265000e+00 7.73312000e+00 5.30193000e+00	Si
atom  9.06893000e+00 9.45371000e+00 6.92158000e+00	N
atom  6.43319000e+00 9.11140000e+00 8.40999000e+00	N
atom  4.74794000e+00 9.20706000e+00 9.15191000e+00	Si
atom  6.75149000e+00 9.51224000e+00 5.58197000e+00	N
atom  2.81302000e+00 8.37483000e+00 1.34555000e+01	N
atom  3.16992000e+00 8.84571000e+00 1.18393000e+01	Si
atom  2.03041000e+00 7.89672000e+00 1.08400000e+01	N
atom  9.37065000e-01 9.25458000e+00 1.10133000e+01	Si
atom  2.12051000e+00 9.60984000e+00 1.44006000e+01	Si
atom  4.72423000e-01 9.12975000e+00 1.46074000e+01	N
atom  -3.88322000e-01 8.79231000e+00 1.19265000e+01	N
atom  4.73061000e+00 8.88943000e+00 1.12161000e+01	N
atom  6.33567000e+00 9.33066000e+00 1.35783000e+01	N
atom  8.89669000e+00 7.84113000e+00 1.34254000e+01	N
atom  7.15994000e+00 7.76995000e+00 1.34091000e+01	Si
atom  9.37368000e+00 9.00659000e+00 1.46262000e+01	Si
atom  3.58172000e+00 8.74054000e+00 1.84782000e+01	N
atom  8.60303000e-01 8.30544000e+00 1.61657000e+01	Si
atom  2.53618000e+00 9.01257000e+00 1.60438000e+01	N
atom  3.90746000e+00 9.45552000e+00 1.69726000e+01	Si
atom  -4.78521000e-02 9.47283000e+00 1.71080000e+01	N
atom  8.90308000e+00 8.24027000e+00 1.83060000e+01	N
atom  5.38234000e+00 8.90355000e+00 1.62352000e+01	N
atom  8.35664000e+00 7.51967000e+00 1.68466000e+01	Si
atom  8.05893000e+00 8.84600000e+00 1.57588000e+01	N
atom  6.54433000e+00 9.69141000e+00 1.52391000e+01	Si
atom  6.05022000e-01 7.77447000e+00 2.13257000e+01	Si
atom  3.96488000e+00 8.87689000e+00 2.11338000e+01	N
atom  5.82734000e-01 8.94214000e+00 1.99935000e+01	N
atom  -1.68750000e-01 9.34006000e+00 2.35450000e+01	Si
atom  4.87508000e+00 9.29023000e+00 2.26101000e+01	Si
atom  5.83323000e+00 8.09581000e+00 2.33820000e+01	N
atom  6.97957000e+00 8.67800000e+00 2.44924000e+01	Si
atom  8.16119000e+00 9.54608000e+00 2.35919000e+01	N
atom  3.94496000e+00 8.88611000e+00 2.68681000e+01	N
atom  2.89977000e+00 7.79196000e+00 2.77219000e+01	Si
atom  1.42161000e+00 8.68568000e+00 2.76407000e+01	N
atom  2.89882000e-01 8.67261000e+00 2.62260000e+01	Si
atom  3.40993000e+00 7.55206000e+00 2.93819000e+01	N
atom  7.81510000e+00 7.53715000e+00 2.54870000e+01	N
atom  6.74326000e+00 8.85553000e+00 2.79971000e+01	N
atom  5.66119000e+00 8.47955000e+00 2.68445000e+01	Si
atom  7.01320000e+00 9.54656000e+00 2.95130000e+01	Si
atom  2.44518000e+00 8.87456000e+00 3.29921000e+01	Si
atom  3.75369000e+00 8.42332000e+00 3.19363000e+01	N
atom  3.69089000e+00 9.04712000e+00 3.02610000e+01	Si
atom  3.18841000e+00 9.66016000e+00 3.42730000e+01	N
atom  1.10142000e+00 9.82515000e+00 3.25056000e+01	N
atom  8.36934000e+00 8.86595000e+00 3.04153000e+01	N
atom  5.50697000e+00 8.54588000e+00 3.18388000e+01	Si
atom  5.50252000e+00 9.28683000e+00 3.03030000e+01	N
atom  6.77317000e+00 8.87635000e+00 3.44806000e+01	Si
atom  7.82108000e+00 7.52388000e+00 3.39352000e+01	N
atom  6.12229000e+00 9.61885000e+00 3.29695000e+01	N
atom  4.08511000e+00 7.84565000e+00 3.85198000e+01	N
atom  2.50899000e+00 8.00517000e+00 3.62166000e+01	N
atom  2.44221000e+00 8.25532000e+00 3.79664000e+01	Si
atom  6.41215000e-01 9.76493000e+00 3.52507000e+01	N
atom  9.44016000e+00 7.83932000e+00 3.80457000e+01	N
atom  5.83711000e+00 8.71461000e+00 3.59113000e+01	N
atom  6.47250000e+00 9.00882000e+00 3.82669000e+01	N
atom  5.40112000e+00 7.82833000e+00 3.73814000e+01	Si
atom  8.18042000e+00 8.91884000e+00 3.89495000e+01	Si
atom  5.54669000e+00 9.43618000e+00 3.97062000e+01	Si
atom  2.13339000e+00 1.08650000e+01 2.22706000e+00	N
atom  1.88888000e-01 1.03327000e+01 4.22000000e+00	N
atom  4.16654000e+00 1.04937000e+01 4.43718000e-01	N
atom  3.64236000e+00 1.00370000e+01 2.04274000e+00	Si
atom  9.61928000e-01 1.18806000e+01 -6.76179000e-02	N
atom  8.16595000e+00 9.76581000e+00 4.41698000e+00	Si
atom  6.88974000e+00 1.03748000e+01 4.29901000e-01	N
atom  7.39639000e+00 1.13593000e+01 4.12728000e+00	N
atom  8.30876000e+00 1.01558000e+01 1.55558000e+00	Si
atom  5.16119000e+00 1.01133000e+01 2.98079000e+00	N
atom  5.75873000e+00 1.07584000e+01 4.67361000e+00	Si
atom  8.45236000e+00 1.18954000e+01 1.58794000e+00	N
atom  7.23788000e+00 1.20640000e+01 2.00574000e-01	Si
atom  1.97543000e+00 1.05983000e+01 8.54610000e+00	Si
atom  2.04410000e+00 1.07535000e+01 6.79886000e+00	N
atom  8.92491000e-01 1.12443000e+01 5.53091000e+00	Si
atom  4.16486000e+00 1.01678000e+01 5.55577000e+00	N
atom  3.56631000e+00 1.19076000e+01 5.76942000e+00	Si
atom  2.23055000e+00 1.21281000e+01 9.35154000e+00	N
atom  4.83684000e+00 1.10620000e+01 9.02202000e+00	N
atom  7.41825000e+00 1.14989000e+01 7.75028000e+00	N
atom  6.51628000e+00 1.13563000e+01 9.32847000e+00	Si
atom  7.40520000e+00 9.82391000e+00 7.19446000e+00	Si
atom  2.54688000e+00 1.11688000e+01 1.41966000e+01	N
atom  2.90106000e+00 1.15966000e+01 1.25043000e+01	Si
atom  2.11003000e+00 1.02867000e+01 1.17675000e+01	N
atom  4.63229000e+00 1.13013000e+01 1.24669000e+01	N
atom  6.88951000e+00 1.05315000e+01 1.08623000e+01	N
atom  8.15471000e+00 1.18370000e+01 1.42564000e+01	Si
atom  5.71718000e+00 1.00393000e+01 1.20427000e+01	Si
atom  9.30566000e+00 1.05462000e+01 1.38494000e+01	N
atom  9.37485000e+00 1.18848000e+01 1.15051000e+01	N
atom  7.69672000e+00 1.20601000e+01 1.14640000e+01	Si
atom  3.70097000e+00 1.11713000e+01 1.69479000e+01	N
atom  3.19024000e+00 1.20550000e+01 1.55133000e+01	Si
atom  9.28825000e+00 9.91108000e+00 1.82635000e+01	Si
atom  4.83921000e+00 1.09210000e+01 1.94368000e+01	N
atom  7.97576000e+00 1.10692000e+01 1.84399000e+01	N
atom  7.12755000e+00 1.13401000e+01 1.56090000e+01	N
atom  2.24268000e+00 1.04572000e+01 2.37935000e+01	Si
atom  8.67646000e-01 1.04024000e+01 2.09342000e+01	Si
atom  2.29826000e+00 1.09888000e+01 2.00945000e+01	N
atom  1.23352000e+00 9.76230000e+00 2.24923000e+01	N
atom  3.79954000e+00 9.75941000e+00 2.39110000e+01	N
atom  3.58628000e+00 9.82807000e+00 1.97739000e+01	Si
atom  5.90974000e+00 1.05912000e+01 2.20721000e+01	N
atom  7.47465000e+00 1.08292000e+01 2.27649000e+01	Si
atom  8.37498000e+00 1.13874000e+01 2.14673000e+01	N
atom  5.49106000e+00 1.17502000e+01 2.08574000e+01	Si
atom  7.24916000e+00 1.19681000e+01 2.41064000e+01	N
atom  8.08245000e+00 1.20548000e+01 1.99047000e+01	Si
atom  1.12395000e+00 9.87833000e+00 2.49470000e+01	N
atom  4.26415000e+00 1.00739000e+01 2.55772000e+01	Si
atom  8.03617000e-01 1.01598000e+01 2.82102000e+01	Si
atom  3.63432000e+00 1.16072000e+01 2.59182000e+01	N
atom  1.78916000e+00 1.15532000e+01 2.81619000e+01	N
atom  3.03963000e+00 1.17748000e+01 2.93592000e+01	Si
atom  -1.11984000e-01 1.11935000e+01 2.54492000e+01	Si
atom  6.02964000e+00 9.84240000e+00 2.56191000e+01	N
atom  7.20585000e+00 1.12671000e+01 2.90980000e+01	N
atom  8.32234000e+00 1.11919000e+01 2.65097000e+01	N
atom  6.81395000e+00 1.14016000e+01 2.57353000e+01	Si
atom  8.62728000e+00 1.16692000e+01 2.81332000e+01	Si
atom  4.65889000e+00 1.21307000e+01 2.86481000e+01	N
atom  1.09024000e+00 1.06823000e+01 3.10101000e+01	Si
atom  3.54272000e+00 1.13124000e+01 3.42278000e+01	Si
atom  2.68966000e+00 1.03958000e+01 3.03275000e+01	N
atom  2.99801000e-02 1.05271000e+01 3.37692000e+01	Si
atom  3.34161000e-02 9.94943000e+00 2.98243000e+01	N
atom  2.95943000e+00 1.20517000e+01 3.28061000e+01	N
atom  9.37068000e+00 1.16376000e+01 3.30486000e+01	Si
atom  6.18357000e+00 1.13352000e+01 3.26796000e+01	Si
atom  5.20922000e+00 1.17675000e+01 3.42195000e+01	N
atom  5.48580000e+00 1.20284000e+01 3.13617000e+01	N
atom  7.69372000e+00 1.21159000e+01 3.30178000e+01	N
atom  2.81732000e+00 1.16013000e+01 3.57908000e+01	N
atom  1.84895000e+00 1.14860000e+01 3.84302000e+01	Si
atom  2.26286000e+00 9.98560000e+00 3.77476000e+01	N
atom  2.24378000e+00 9.78676000e+00 3.58590000e+01	Si
atom  8.50413000e+00 1.03837000e+01 3.77124000e+01	N
atom  6.84737000e+00 1.00461000e+01 3.68843000e+01	Si
atom  9.41666000e+00 1.02840000e+01 3.57807000e+01	Si
atom  9.35375000e+00 1.18409000e+01 3.79916000e+01	Si
atom  5.73319000e+00 1.14037000e+01 3.68100000e+01	N
atom  7.76857000e+00 1.00355000e+01 3.53447000e+01	N
atom  1.58163000e+00 1.37893000e+01 4.03849000e+00	Si
atom  3.05212000e+00 1.31431000e+01 1.12963000e+00	N
atom  5.70017000e-01 1.34280000e+01 2.52482000e+00	N
atom  1.58295000e+00 1.23245000e+01 1.45201000e+00	Si
atom  4.09263000e+00 1.22168000e+01 9.13864000e-02	Si
atom  2.14402000e+00 1.23837000e+01 4.82285000e+00	N
atom  5.69298000e+00 1.27498000e+01 3.22604000e-01	N
atom  6.42691000e+00 1.36169000e+01 2.94339000e+00	N
atom  7.83903000e+00 1.25967000e+01 3.00578000e+00	Si
atom  9.17739000e+00 1.36593000e+01 3.45986000e+00	N
atom  5.88259000e+00 1.38430000e+01 4.62056000e+00	Si
atom  5.95988000e+00 1.41459000e+01 1.31502000e+00	Si
atom  -2.70943000e-01 1.23032000e+01 6.17690000e+00	N
atom  3.85967000e+00 1.24940000e+01 8.85702000e+00	Si
atom  3.77049000e+00 1.29446000e+01 7.19659000e+00	N
atom  2.50914000e-01 1.43096000e+01 7.83589000e+00	N
atom  -3.24703000e-01 1.40142000e+01 6.18677000e+00	Si
atom  5.06933000e+00 1.23395000e+01 4.95507000e+00	N
atom  7.36479000e+00 1.41369000e+01 5.47752000e+00	N
atom  8.98668000e+00 1.38880000e+01 5.18891000e+00	Si
atom  8.86472000e+00 1.23586000e+01 7.57494000e+00	Si
atom  8.64456000e+00 1.40502000e+01 7.96613000e+00	N
atom  6.03643000e+00 1.43045000e+01 9.61137000e+00	Si
atom  2.55676000e+00 1.30969000e+01 1.18486000e+01	N
atom  1.58222000e+00 1.33313000e+01 1.04273000e+01	Si
atom  -1.03652000e-01 1.32453000e+01 1.05793000e+01	N
atom  3.90380000e+00 1.41484000e+01 1.15214000e+01	Si
atom  4.40681000e+00 1.37574000e+01 9.92044000e+00	N
atom  5.22085000e+00 1.40238000e+01 1.26830000e+01	N
atom  5.46748000e+00 1.24969000e+01 1.34183000e+01	Si
atom  6.93983000e+00 1.28896000e+01 1.01080000e+01	N
atom  9.11109000e+00 1.31814000e+01 1.46505000e+01	N
atom  7.08996000e+00 1.21936000e+01 1.30120000e+01	N
atom  1.97806000e-01 1.31007000e+01 1.51615000e+01	Si
atom  1.91544000e+00 1.32868000e+01 1.56681000e+01	N
atom  3.48299000e+00 1.32217000e+01 1.89243000e+01	N
atom  4.52341000e+00 1.20271000e+01 1.82131000e+01	Si
atom  5.80769000e+00 1.27978000e+01 1.74614000e+01	N
atom  9.20074000e+00 1.43047000e+01 1.85499000e+01	Si
atom  4.61485000e+00 1.27799000e+01 1.48978000e+01	N
atom  7.42640000e+00 1.20717000e+01 1.71429000e+01	Si
atom  5.27250000e+00 1.37904000e+01 1.61672000e+01	Si
atom  8.43836000e+00 1.34998000e+01 1.72238000e+01	N
atom  8.42075000e+00 1.43535000e+01 1.57062000e+01	Si
atom  1.67453000e+00 1.36670000e+01 2.13738000e+01	N
atom  3.32467000e+00 1.34824000e+01 2.27630000e+01	Si
atom  2.75872000e+00 1.26562000e+01 2.03333000e+01	Si
atom  4.07868000e+00 1.25321000e+01 2.14524000e+01	N
atom  7.14622000e-02 1.32902000e+01 2.18337000e+01	Si
atom  4.24483000e+00 1.36805000e+01 2.43024000e+01	N
atom  2.37895000e+00 1.21985000e+01 2.35721000e+01	N
atom  8.28544000e+00 1.33593000e+01 2.40501000e+01	Si
atom  6.60821000e+00 1.28755000e+01 2.00916000e+01	N
atom  8.66024000e+00 1.42389000e+01 2.25472000e+01	N
atom  9.38412000e+00 1.31211000e+01 1.98427000e+01	N
atom  1.32094000e-01 1.39475000e+01 2.49666000e+01	Si
atom  9.15158000e-01 1.26084000e+01 2.57489000e+01	N
atom  3.05232000e+00 1.38825000e+01 2.69499000e+01	N
atom  1.57874000e+00 1.30141000e+01 2.74130000e+01	Si
atom  6.60910000e-01 1.39518000e+01 2.85630000e+01	N
atom  2.61363000e+00 1.31084000e+01 2.50482000e+01	Si
atom  4.36148000e+00 1.26197000e+01 2.70050000e+01	Si
atom  5.89919000e+00 1.28765000e+01 2.62728000e+01	N
atom  8.98362000e+00 1.33785000e+01 2.81135000e+01	N
atom  5.64231000e+00 1.42741000e+01 2.51826000e+01	Si
atom  6.07141000e+00 1.23954000e+01 2.96964000e+01	Si
atom  4.00847000e+00 1.29260000e+01 3.17145000e+01	Si
atom  1.40029000e+00 1.28676000e+01 3.28572000e+01	Si
atom  2.81225000e+00 1.31838000e+01 3.04450000e+01	N
atom  1.08761000e+00 1.36821000e+01 3.02634000e+01	Si
atom  4.53557000e-01 1.23116000e+01 3.42288000e+01	N
atom  5.14857000e-01 1.23031000e+01 3.13585000e+01	N
atom  8.16019000e+00 1.36481000e+01 3.36885000e+01	Si
atom  6.66315000e+00 1.39982000e+01 2.99174000e+01	N
atom  1.29337000e+00 1.25709000e+01 3.57954000e+01	Si
atom  3.37464000e+00 1.23056000e+01 3.84005000e+01	N
atom  2.00882000e+00 1.42337000e+01 3.56696000e+01	N
atom  4.13031000e+00 1.21427000e+01 3.69258000e+01	Si
atom  6.21898000e-01 1.20846000e+01 3.73120000e+01	N
atom  5.99025000e+00 1.26424000e+01 3.54532000e+01	Si
atom  4.70010000e+00 1.35945000e+01 3.61794000e+01	N
atom  8.47910000e+00 1.28000000e+01 3.91666000e+01	N
atom  7.31410000e+00 1.37013000e+01 3.52558000e+01	N
atom  1.70587000e+00 1.57347000e+01 1.21860000e+00	N
atom  3.77347000e-01 1.53349000e+01 2.29726000e+00	Si
atom  3.10734000e+00 1.48525000e+01 1.67357000e+00	Si
atom  3.57926000e+00 1.59698000e+01 4.60144000e+00	Si
atom  2.90782000e+00 1.48300000e+01 3.38798000e+00	N
atom  4.83844000e-01 1.65120000e+01 4.84171000e+00	Si
atom  2.46984000e-01 1.68116000e+01 3.16563000e+00	N
atom  4.74310000e+00 1.53853000e+01 1.25974000e+00	N
atom  9.28491000e+00 1.63130000e+01 2.35189000e+00	N
atom  7.36601000e+00 1.48445000e+01 6.42570000e-01	N
atom  8.10617000e+00 1.63433000e+01 1.12228000e+00	Si
atom  5.47446000e-01 1.47312000e+01 4.97660000e+00	N
atom  1.50065000e+00 1.53737000e+01 8.34133000e+00	Si
atom  3.02783000e+00 1.56263000e+01 7.57279000e+00	N
atom  4.36320000e+00 1.45803000e+01 7.04413000e+00	Si
atom  2.16044000e+00 1.67869000e+01 5.37017000e+00	N
atom  7.87012000e+00 1.65747000e+01 7.06401000e+00	N
atom  4.70043000e+00 1.50289000e+01 5.44295000e+00	N
atom  5.92032000e+00 1.45793000e+01 7.85531000e+00	N
atom  7.38060000e+00 1.49060000e+01 7.02224000e+00	Si
atom  3.38933000e+00 1.58447000e+01 1.18633000e+01	N
atom  4.44056000e-01 1.58114000e+01 1.22857000e+01	N
atom  1.77849000e+00 1.61498000e+01 1.12112000e+01	Si
atom  9.04164000e-01 1.59546000e+01 1.39054000e+01	Si
atom  2.55746000e+00 1.57562000e+01 1.44993000e+01	N
atom  3.71832000e+00 1.65869000e+01 1.34709000e+01	Si
atom  1.75807000e+00 1.49606000e+01 9.93301000e+00	N
atom  -5.68432000e-02 1.48397000e+01 1.48900000e+01	N
atom  7.82572000e+00 1.51982000e+01 1.29823000e+01	N
atom  9.05775000e+00 1.56695000e+01 1.04902000e+01	N
atom  6.37603000e+00 1.50435000e+01 1.36546000e+01	Si
atom  5.30633000e+00 1.64193000e+01 1.39934000e+01	N
atom  9.29973000e+00 1.55631000e+01 1.22181000e+01	Si
atom  6.32004000e+00 1.59320000e+01 1.02026000e+01	N
atom  2.49358000e+00 1.56151000e+01 1.95120000e+01	N
atom  1.40523000e+00 1.57304000e+01 1.70826000e+01	N