lattice_vector  4.00206724e+01 0.00000000e+00 0.00000000e+00
lattice_vector  2.45055942e-15 4.00206724e+01 0.00000000e+00
lattice_vector  2.45055942e-15 2.45055942e-15 4.00206724e+01
atom  1.45483000e-01 3.39827000e+00 3.54131000e-01	N
atom  1.62777000e+00 4.42628000e+00 4.72027000e-01	Si
atom  1.59767000e+00 2.99784000e+00 4.43699000e+00	Si
atom  1.26931000e+00 9.40080000e-01 2.41804000e-01	N
atom  1.88181000e+00 4.62115000e+00 3.94890000e+00	N
atom  7.03710000e-01 5.46936000e+00 3.00092000e+00	Si
atom  1.07702000e+00 5.93011000e+00 1.33598000e+00	N
atom  2.32374000e-01 6.92870000e+00 3.73887000e+00	N
atom  -1.95979000e-02 7.13456000e+00 6.71904000e-01	Si
atom  7.99317000e-01 8.57589000e+00 2.45023000e-01	N
atom  1.61378000e+00 9.20348000e+00 4.09454000e+00	N
atom  -1.22153000e-01 2.60094000e+00 5.01408000e+00	N
atom  8.24400000e-01 1.85060000e+00 9.18902000e+00	N
atom  5.43345000e-01 2.69378000e+00 6.69213000e+00	Si
atom  -2.27516000e-02 4.89262000e-01 8.51114000e+00	Si
atom  -3.36563000e-01 3.71358000e+00 7.76331000e+00	N
atom  -5.13474000e-01 2.97551000e+00 9.39633000e+00	Si
atom  -2.62992000e-01 1.04567000e+00 6.90828000e+00	N
atom  1.00070000e+00 7.85217000e+00 5.03060000e+00	Si
atom  8.66712000e-01 7.04022000e+00 8.91166000e+00	Si
atom  -1.06789000e-01 8.65728000e+00 5.97790000e+00	N
atom  8.25075000e-01 8.81004000e+00 8.65723000e+00	N
atom  -4.47269000e-01 1.00048000e+01 8.74890000e+00	Si
atom  1.09214000e+00 3.29514000e+00 1.18736000e+01	Si
atom  3.44288000e-01 1.87802000e+00 1.26387000e+01	N
atom  -1.08985000e-01 3.84916000e+00 1.07821000e+01	N
atom  1.45598000e+00 4.20093000e+00 1.33424000e+01	N
atom  4.63102000e-01 5.60883000e+00 1.36904000e+01	Si
atom  5.30710000e-01 6.65977000e+00 1.05713000e+01	N
atom  1.02820000e+00 9.80403000e+00 1.26948000e+01	Si
atom  1.58070000e+00 6.81927000e+00 1.31868000e+01	N
atom  1.60635000e+00 9.48665000e+00 1.42365000e+01	N
atom  1.85302000e+00 7.19234000e+00 1.15541000e+01	Si
atom  1.96341000e+00 8.93979000e+00 1.14934000e+01	N
atom  2.08166000e-01 3.53217000e+00 1.80983000e+01	N
atom  1.43998000e+00 2.85349000e+00 1.91632000e+01	Si
atom  1.64687000e+00 5.45299000e-01 1.63569000e+01	N
atom  1.82590000e+00 1.10968000e+00 1.94108000e+01	N
atom  2.89730000e-02 2.81619000e-01 1.57813000e+01	Si
atom  -6.32545000e-01 1.87298000e+00 1.55762000e+01	N
atom  2.05783000e-01 5.70034000e+00 1.53421000e+01	N
atom  -2.63654000e-01 8.19026000e+00 1.92370000e+01	N
atom  8.70848000e-01 8.05032000e+00 1.79477000e+01	Si
atom  1.70013000e+00 6.10261000e+00 1.62091000e+01	Si
atom  -1.32161000e-01 5.26693000e+00 1.84151000e+01	Si
atom  1.18359000e+00 6.34227000e+00 1.77748000e+01	N
atom  1.59278000e+00 9.53812000e+00 1.60328000e+01	Si
atom  4.97396000e-02 8.80423000e+00 1.65190000e+01	N
atom  1.26754000e-01 3.73150000e+00 2.40320000e+01	Si
atom  1.30326000e+00 1.44419000e+00 2.33593000e+01	Si
atom  -1.76894000e-01 4.04689000e+00 2.10814000e+01	Si
atom  1.49065000e+00 3.72286000e+00 2.07271000e+01	N
atom  4.60984000e-01 4.98238000e-01 2.21053000e+01	N
atom  1.73897000e+00 3.08968000e+00 2.39063000e+01	N
atom  -5.23307000e-01 4.74672000e+00 2.27106000e+01	N
atom  4.06853000e-01 6.90965000e+00 2.43946000e+01	N
atom  2.37205000e-01 6.42297000e+00 2.27445000e+01	Si
atom  -3.42210000e-01 9.07440000e+00 2.07461000e+01	Si
atom  -3.71477000e-01 7.78931000e+00 2.19422000e+01	N
atom  1.41927000e+00 8.18463000e+00 2.48528000e+01	Si
atom  4.13282000e-02 3.68208000e+00 2.83438000e+01	N
atom  9.23967000e-01 4.13706000e+00 2.69222000e+01	Si
atom  1.95770000e-01 1.95720000e+00 2.84722000e+01	Si
atom  -3.62447000e-02 4.51509000e+00 2.55291000e+01	N
atom  -2.85886000e-01 9.56748000e-01 2.53960000e+01	Si
atom  1.26643000e+00 3.63218000e-01 2.48424000e+01	N
atom  -5.03496000e-01 1.21933000e+00 2.70715000e+01	N
atom  2.13314000e-01 1.00611000e+01 2.84294000e+01	Si
atom  9.10059000e-01 8.52769000e+00 2.80267000e+01	N
atom  1.58905000e+00 9.75195000e+00 2.57432000e+01	N
atom  1.50567000e+00 5.73659000e+00 2.73919000e+01	N
atom  3.72936000e-01 6.87988000e+00 2.80057000e+01	Si
atom  8.85293000e-01 1.80621000e+00 3.32881000e+01	Si
atom  1.20262000e+00 5.62049000e-01 3.03061000e+01	Si
atom  1.56427000e+00 1.35831000e+00 3.17877000e+01	N
atom  1.05597000e+00 7.62180000e-01 3.47080000e+01	N
atom  -4.08614000e-01 1.05210000e+00 2.98264000e+01	N
atom  5.56993000e-01 8.20760000e+00 3.13392000e+01	N
atom  9.08868000e-01 7.27992000e+00 3.40215000e+01	N
atom  1.92717000e-01 9.93437000e+00 3.13143000e+01	Si
atom  -2.61029000e-01 9.98275000e+00 3.30113000e+01	N
atom  1.70932000e+00 7.85492000e+00 3.25193000e+01	Si
atom  -2.91049000e-01 4.92035000e+00 3.74987000e+01	N
atom  1.48076000e+00 4.42313000e+00 3.58731000e+01	N
atom  2.97840000e-01 1.51141000e+00 3.61993000e+01	Si
atom  1.05150000e+00 2.11248000e+00 3.77483000e+01	N
atom  2.92189000e-01 1.98894000e+00 3.93919000e+01	Si
atom  -2.58861000e-01 4.11285000e+00 3.59105000e+01	Si
atom  1.54053000e+00 5.47309000e+00 3.72508000e+01	Si
atom  1.59898000e+00 7.98585000e+00 3.55052000e+01	Si
atom  9.90068000e-01 7.17272000e+00 3.69402000e+01	N
atom  1.11215000e+00 9.64099000e+00 3.54483000e+01	N
atom  -4.57874000e-01 7.84392000e+00 3.78418000e+01	Si
atom  3.38814000e-01 1.00631000e+01 3.93895000e+01	Si
atom  -1.53023000e-01 9.58577000e+00 3.78260000e+01	N
atom  2.17437000e-01 1.21338000e+01 2.49173000e+00	N
atom  -1.77705000e-01 1.26165000e+01 8.65961000e-01	Si
atom  1.40670000e+00 1.31256000e+01 3.35437000e+00	Si
atom  2.77607000e-02 1.38128000e+01 4.35443000e+00	N
atom  4.96337000e-01 1.60342000e+01 2.03979000e+00	N
atom  6.69442000e-01 1.75925000e+01 2.76239000e+00	Si
atom  1.53192000e+00 1.77653000e+01 4.33965000e+00	N
atom  1.43159000e+00 1.86319000e+01 1.62095000e+00	N
atom  1.69892000e+00 1.32749000e+01 7.47685000e+00	N
atom  8.10439000e-01 1.47670000e+01 7.33480000e+00	Si
atom  -6.02799000e-02 1.13618000e+01 5.33768000e+00	N
atom  2.81031000e-01 1.24209000e+01 6.74090000e+00	Si
atom  1.61785000e+00 1.05761000e+01 5.06888000e+00	Si
atom  4.19600000e-01 1.73841000e+01 8.68938000e+00	Si
atom  7.83660000e-01 1.76172000e+01 5.86993000e+00	Si
atom  3.11963000e-01 1.59245000e+01 6.05310000e+00	N
atom  1.45952000e+00 1.81064000e+01 7.40273000e+00	N
atom  9.72188000e-01 1.57323000e+01 8.73828000e+00	N
atom  9.37424000e-01 1.30494000e+01 1.41008000e+01	N
atom  2.90012000e-01 1.20033000e+01 1.09404000e+01	Si
atom  1.40346000e+00 1.14176000e+01 1.21260000e+01	N
atom  1.25511000e+00 1.33491000e+01 1.01085000e+01	N
atom  1.37017000e+00 1.50921000e+01 1.02853000e+01	Si
atom  1.04213000e-01 1.54410000e+01 1.13742000e+01	N
atom  2.20110000e-01 1.76141000e+01 1.31523000e+01	N
atom  1.24072000e+00 1.90585000e+01 1.33629000e+01	Si
atom  7.66078000e-01 1.79358000e+01 1.03232000e+01	N
atom  1.39174000e+00 1.94795000e+01 1.05011000e+01	Si
atom  -1.67711000e-01 1.71256000e+01 1.15699000e+01	Si
atom  -4.79871000e-01 1.23485000e+01 1.80758000e+01	Si
atom  1.29087000e+00 1.27808000e+01 1.57488000e+01	Si
atom  9.30605000e-01 1.19159000e+01 1.88528000e+01	N
atom  -2.92265000e-01 1.31641000e+01 1.64545000e+01	N
atom  1.70623000e+00 1.11942000e+01 1.63297000e+01	N
atom  3.71991000e-01 1.57181000e+01 1.52818000e+01	N
atom  1.12877000e+00 1.78526000e+01 1.66431000e+01	Si
atom  -2.33485000e-01 1.83726000e+01 1.56427000e+01	N
atom  4.77117000e-01 1.69383000e+01 1.79881000e+01	N
atom  1.25273000e+00 1.66953000e+01 1.95822000e+01	Si
atom  8.69638000e-01 1.12946000e+01 2.39379000e+01	N
atom  9.27892000e-02 1.29458000e+01 2.17179000e+01	N
atom  1.29724000e+00 1.43604000e+01 2.16890000e+01	Si
atom  1.08093000e+00 1.20182000e+01 2.05615000e+01	Si
atom  -1.13044000e-01 1.13540000e+01 2.25261000e+01	Si
atom  7.21683000e-01 1.04029000e+01 2.12445000e+01	N
atom  1.55963000e+00 1.50902000e+01 2.01702000e+01	N
atom  -1.75070000e-01 1.54771000e+01 2.22270000e+01	N
atom  2.87775000e-01 1.61696000e+01 2.37773000e+01	Si
atom  3.53486000e-01 1.76961000e+01 2.07812000e+01	N
atom  8.97293000e-01 1.77162000e+01 2.41088000e+01	N
atom  1.64580000e-01 1.94230000e+01 2.06345000e+01	Si
atom  9.30007000e-01 1.93806000e+01 2.35069000e+01	Si
atom  1.55166000e+00 2.01251000e+01 2.00071000e+01	N
atom  -2.72887000e-01 1.98801000e+01 2.22577000e+01	N
atom  1.44079000e+00 1.38669000e+01 2.62979000e+01	Si
atom  3.77377000e-01 1.25814000e+01 2.62423000e+01	N
atom  3.82107000e-01 1.10186000e+01 2.56873000e+01	Si
atom  1.70943000e+00 1.09687000e+01 2.87759000e+01	N
atom  7.24211000e-01 1.49427000e+01 2.49586000e+01	N
atom  1.63881000e+00 1.59258000e+01 2.84516000e+01	Si
atom  7.04592000e-01 1.86305000e+01 2.77536000e+01	Si
atom  1.42780000e+00 1.92140000e+01 2.62772000e+01	N
atom  9.67777000e-01 1.69456000e+01 2.71932000e+01	N
atom  1.63324000e+00 1.93646000e+01 2.90497000e+01	N
atom  1.69090000e+00 1.75584000e+01 2.56200000e+01	Si
atom  1.50161000e+00 1.11228000e+01 3.13567000e+01	N
atom  1.65412000e+00 1.20493000e+01 3.42272000e+01	N
atom  1.58844000e+00 1.22279000e+01 2.99884000e+01	Si
atom  -4.03118000e-01 1.47682000e+01 3.02027000e+01	Si
atom  1.17298000e-01 1.30995000e+01 2.98384000e+01	N
atom  1.18431000e+00 1.04168000e+01 3.38800000e+01	Si
atom  -1.29333000e-01 1.52902000e+01 3.34225000e+01	Si
atom  8.57853000e-01 1.68921000e+01 3.14181000e+01	Si
atom  1.25265000e+00 1.61987000e+01 3.29498000e+01	N
atom  9.55163000e-01 1.57680000e+01 3.00265000e+01	N
atom  3.10584000e-01 1.28863000e+01 3.48569000e+01	Si
atom  3.85973000e-01 1.46197000e+01 3.50030000e+01	N
atom  -1.61163000e-01 1.04458000e+01 3.62518000e+01	Si
atom  7.05960000e-01 1.35188000e+01 3.79687000e+01	Si
atom  -2.85548000e-01 1.22230000e+01 3.63563000e+01	N
atom  1.17165000e+00 1.51454000e+01 3.75892000e+01	N
atom  1.07515000e+00 1.31616000e+01 3.98458000e+01	N
atom  2.91767000e-01 1.73210000e+01 3.62078000e+01	N
atom  1.11849000e+00 2.01837000e+01 3.70213000e+01	N
atom  1.19031000e+00 1.58527000e+01 3.58419000e+01	Si
atom  1.02751000e+00 1.61830000e+01 3.89921000e+01	Si
atom  1.24300000e+00 1.79697000e+01 3.87033000e+01	N
atom  4.17060000e-01 1.86377000e+01 3.73722000e+01	Si
atom  5.21490000e-02 2.09556000e+01 2.43702000e+00	N
atom  1.44535000e+00 2.48149000e+01 4.02236000e-01	Si
atom  1.29052000e+00 2.30365000e+01 3.52309000e+00	N
atom  1.73137000e+00 2.30323000e+01 8.11073000e-01	N
atom  1.51315000e+00 2.03320000e+01 1.73176000e+00	Si
atom  -3.84096000e-01 2.26337000e+01 2.95722000e+00	Si
atom  2.01253000e-01 2.71792000e+01 4.56745000e-01	N
atom  1.00595000e+00 2.87288000e+01 3.71887000e-01	Si
atom  7.83827000e-01 2.69853000e+01 2.12669000e+00	Si
atom  1.51269000e+00 2.85587000e+01 2.06753000e+00	N
atom  3.48438000e-02 3.00261000e+01 -2.32599000e-01	N
atom  7.92910000e-01 2.40132000e+01 4.83556000e+00	Si
atom  1.69050000e+00 2.49881000e+01 8.31323000e+00	N
atom  -4.02404000e-01 2.15951000e+01 9.44131000e+00	Si
atom  8.85246000e-01 2.29309000e+01 6.21876000e+00	N
atom  9.62194000e-01 2.27364000e+01 9.16312000e+00	N
atom  5.61482000e-01 2.44900000e+01 9.56941000e+00	Si
atom  -2.26243000e-01 2.68229000e+01 4.96591000e+00	Si
atom  2.00989000e-01 2.89175000e+01 9.37553000e+00	Si
atom  -1.94313000e-01 2.82820000e+01 6.02445000e+00	N
atom  1.08448000e+00 2.57293000e+01 4.99410000e+00	N
atom  4.53965000e-01 2.98585000e+01 6.74693000e+00	Si
atom  1.61590000e+00 2.79246000e+01 9.03850000e+00	N
atom  4.70699000e-02 2.41022000e+01 1.42550000e+01	N
atom  4.19433000e-01 2.25815000e+01 1.19851000e+01	N
atom  7.55814000e-01 2.49170000e+01 1.12795000e+01	N
atom  -3.52772000e-01 2.41884000e+01 1.25318000e+01	Si
atom  2.05699000e-02 2.02343000e+01 1.35907000e+01	N
atom  -1.52137000e-01 2.03445000e+01 1.06158000e+01	N
atom  1.78484000e+00 2.43509000e+01 1.44687000e+01	Si
atom  -5.01678000e-01 2.11288000e+01 1.21975000e+01	Si
atom  -2.52431000e-01 2.90659000e+01 1.11205000e+01	N
atom  1.69265000e+00 2.85407000e+01 1.44215000e+01	N
atom  8.87812000e-01 2.21495000e+01 1.71629000e+01	Si
atom  1.24921000e+00 2.25097000e+01 1.89276000e+01	N
atom  4.95430000e-01 2.39977000e+01 1.92423000e+01	Si
atom  -3.02705000e-01 2.11263000e+01 1.64454000e+01	N
atom  1.39492000e+00 2.50588000e+01 1.69979000e+01	Si
atom  2.08201000e-01 2.37591000e+01 1.69221000e+01	N
atom  1.61725000e+00 2.51900000e+01 1.86855000e+01	N
atom  9.58916000e-01 2.64854000e+01 1.61812000e+01	N
atom  3.98668000e-01 2.95116000e+01 1.50231000e+01	Si
atom  5.08789000e-01 2.42125000e+01 2.09507000e+01	N
atom  1.21168000e+00 2.08876000e+01 2.43221000e+01	N
atom  1.45386000e+00 2.47045000e+01 2.35595000e+01	N
atom  -1.86620000e-01 2.47100000e+01 2.38796000e+01	Si
atom  1.83751000e+00 2.40202000e+01 2.19401000e+01	Si
atom  5.48003000e-01 2.78074000e+01 2.09436000e+01	Si
atom  1.32775000e+00 2.86195000e+01 2.35794000e+01	Si
atom  1.81608000e-02 2.79828000e+01 2.25567000e+01	N
atom  6.01526000e-01 2.93855000e+01 2.02236000e+01	N
atom  -1.89453000e-01 2.17489000e+01 2.66176000e+01	N
atom  1.89125000e-01 2.44861000e+01 2.77815000e+01	N
atom  -8.80598000e-02 2.27751000e+01 2.80038000e+01	Si
atom  1.35314000e+00 2.22265000e+01 2.88183000e+01	N
atom  1.22375000e+00 2.08486000e+01 2.60633000e+01	Si
atom  1.73458000e+00 2.53924000e+01 2.77842000e+01	Si
atom  3.11542000e-01 2.70614000e+01 2.59087000e+01	Si
atom  1.74266000e+00 2.61339000e+01 2.62076000e+01	N
atom  1.12148000e+00 2.99013000e+01 2.62328000e+01	Si
atom  7.22882000e-01 2.86306000e+01 2.51936000e+01	N
atom  1.15766000e+00 2.97520000e+01 2.79400000e+01	N
atom  1.86417000e+00 2.61279000e+01 2.93542000e+01	N
atom  1.07214000e+00 2.43001000e+01 3.33051000e+01	Si
atom  7.02914000e-01 2.26130000e+01 3.32980000e+01	N
atom  -2.23409000e-01 2.12832000e+01 3.25674000e+01	Si
atom  -1.51817000e-01 2.12870000e+01 3.08558000e+01	N
atom  1.89282000e-02 2.50539000e+01 3.45729000e+01	N
atom  1.08347000e+00 2.14545000e+01 3.46554000e+01	Si
atom  1.30464000e+00 2.08612000e+01 2.99358000e+01	Si
atom  8.69437000e-01 2.01951000e+01 3.33593000e+01	N
atom  7.06544000e-01 2.54409000e+01 3.21208000e+01	N
atom  4.71856000e-01 2.60210000e+01 3.05124000e+01	Si
atom  1.55336000e-01 2.75895000e+01 3.36727000e+01	N
atom  1.23579000e+00 2.76968000e+01 3.23381000e+01	Si
atom  1.13060000e-01 2.76385000e+01 3.10662000e+01	N
atom  -5.10475000e-01 2.61108000e+01 3.32724000e+01	Si
atom  1.64957000e+00 2.21293000e+01 3.94338000e+01	Si
atom  -5.08452000e-02 2.20715000e+01 3.57743000e+01	N
atom  -3.35715000e-04 2.21660000e+01 3.87827000e+01	N
atom  -1.10602000e-01 2.48663000e+01 3.94722000e+01	N
atom  -3.71504000e-01 2.11887000e+01 3.73481000e+01	Si
atom  1.87994000e+00 2.52379000e+01 3.67156000e+01	N
atom  4.52497000e-01 2.71958000e+01 3.63688000e+01	N
atom  9.73628000e-01 2.98635000e+01 3.51774000e+01	N
atom  -9.12431000e-02 2.83882000e+01 3.52048000e+01	Si
atom  2.02473000e-01 2.54819000e+01 3.62162000e+01	Si
atom  5.05089000e-02 3.15380000e+01 4.37012000e+00	Si
atom  1.55440000e+00 3.38202000e+01 2.47030000e+00	N
atom  -1.22850000e-01 3.37294000e+01 2.89551000e+00	Si
atom  1.46649000e+00 3.08785000e+01 3.56419000e+00	N
atom  8.81081000e-01 3.30547000e+01 4.69358000e+00	N
atom  1.34404000e+00 3.53885000e+01 -2.11268000e-02	N
atom  -1.38528000e-02 3.67693000e+01 1.95762000e+00	N
atom  1.26699000e+00 3.71086000e+01 4.25878000e+00	N
atom  1.50433000e+00 3.73738000e+01 2.55389000e+00	Si
atom  -1.69814000e-01 3.58244000e+01 6.20772000e-01	Si
atom  4.80930000e-01 3.97142000e+01 4.66082000e+00	N
atom  1.92178000e+00 3.90534000e+01 2.36016000e+00	N
atom  -2.46736000e-01 3.45824000e+01 6.71547000e+00	N
atom  2.70994000e-01 3.37116000e+01 9.51395000e+00	N
atom  1.17590000e+00 3.38354000e+01 6.16865000e+00	Si
atom  2.40657000e-01 3.21172000e+01 8.40583000e+00	Si
atom  1.54678000e+00 3.25729000e+01 7.26630000e+00	N
atom  -2.54384000e-01 3.49688000e+01 8.39378000e+00	Si
atom  3.66448000e-01 3.04095000e+01 8.50630000e+00	N
atom  1.73995000e-02 3.81018000e+01 4.87707000e+00	Si
atom  8.76032000e-01 3.63266000e+01 8.61979000e+00	N
atom  7.86037000e-01 3.77389000e+01 7.66350000e+00	Si
atom  8.33432000e-01 3.90960000e+01 8.78073000e+00	N
atom  4.28707000e-02 3.33906000e+01 1.12193000e+01	Si
atom  1.56684000e+00 3.32935000e+01 1.20689000e+01	N
atom  2.80633000e-01 3.04347000e+01 1.20514000e+01	Si
atom  -4.60590000e-01 3.17154000e+01 1.11986000e+01	N
atom  9.53849000e-01 3.55738000e+01 1.43324000e+01	N
atom  6.75638000e-01 3.94062000e+01 1.14176000e+01	N
atom  1.02659000e+00 3.63294000e+01 1.14749000e+01	N
atom  -2.04444000e-01 3.98556000e+01 1.40579000e+01	N
atom  1.01068000e+00 4.02894000e+01 1.28382000e+01	Si
atom  4.34617000e-01 3.41517000e+01 1.77180000e+01	Si
atom  1.32075000e+00 3.36600000e+01 1.62898000e+01	N
atom  1.33396000e+00 3.43256000e+01 1.91644000e+01	N
atom  -1.28079000e-01 3.25920000e+01 1.83260000e+01	N
atom  7.57357000e-01 3.08834000e+01 1.61379000e+01	N
atom  1.89554000e+00 3.52266000e+01 1.57425000e+01	Si
atom  6.00008000e-02 3.77726000e+01 1.73085000e+01	Si
atom  1.31360000e+00 3.62910000e+01 1.70862000e+01	N
atom  1.41256000e+00 3.85231000e+01 1.81599000e+01	N
atom  7.73191000e-01 3.36500000e+01 2.16332000e+01	N
atom  5.24401000e-01 3.28468000e+01 1.99999000e+01	Si
atom  1.95854000e+00 3.18995000e+01 2.04732000e+01	N
atom  5.72935000e-01 3.52027000e+01 2.46003000e+01	Si
atom  1.06930000e+00 3.80371000e+01 2.35305000e+01	N
atom  1.09226000e+00 3.89147000e+01 2.19429000e+01	Si
atom  -1.42556000e-01 3.78406000e+01 2.12936000e+01	N
atom  -2.03182000e-01 3.56309000e+01 2.31895000e+01	N
atom  -1.00887000e-02 3.36078000e+01 2.49751000e+01	N
atom  5.06352000e-01 3.47206000e+01 2.95969000e+01	Si
atom  1.09919000e+00 3.24673000e+01 2.55780000e+01	Si
atom  4.82195000e-02 3.12557000e+01 2.61407000e+01	N
atom  -1.66166000e-01 3.05912000e+01 2.89573000e+01	Si
atom  4.03056000e-01 3.66839000e+01 2.72456000e+01	Si
atom  1.20340000e+00 3.52725000e+01 2.80354000e+01	N
atom  1.50896000e+00 3.87362000e+01 2.51768000e+01	Si
atom  1.53797000e+00 3.78823000e+01 2.67772000e+01	N
atom  -2.13499000e-01 3.62534000e+01 2.56801000e+01	N
atom  1.32631000e-01 3.27668000e+01 3.36975000e+01	Si
atom  1.21391000e+00 3.19968000e+01 3.26390000e+01	N
atom  1.14582000e-01 3.43609000e+01 3.30689000e+01	N
atom  9.46959000e-01 3.07723000e+01 3.02259000e+01	N
atom  1.35836000e+00 3.37592000e+01 3.06246000e+01	N
atom  8.06504000e-01 3.05254000e+01 3.18853000e+01	Si
atom  6.47585000e-03 3.61801000e+01 3.04441000e+01	N
atom  -3.21600000e-02 3.59165000e+01 3.20902000e+01	Si
atom  1.57137000e+00 3.63930000e+01 3.27167000e+01	N
atom  1.15262000e+00 3.88880000e+01 3.00906000e+01	N
atom  -1.57436000e-01 3.78128000e+01 2.99345000e+01	Si
atom  6.47711000e-01 3.13374000e+01 3.59955000e+01	Si
atom  9.28377000e-01 3.42162000e+01 3.64396000e+01	Si
atom  7.74780000e-01 3.28985000e+01 3.53111000e+01	N
atom  1.48067000e+00 3.07305000e+01 3.90603000e+01	Si
atom  1.61055000e+00 3.14735000e+01 3.74495000e+01	N
atom  -1.10914000e-01 3.91505000e+01 3.50414000e+01	Si
atom  1.64395000e+00 3.82272000e+01 3.48965000e+01	N
atom  9.50837000e-01 3.55930000e+01 3.53306000e+01	N
atom  1.01278000e+00 3.71099000e+01 3.61500000e+01	Si
atom  -5.43440000e-01 4.01011000e+01 3.65012000e+01	N
atom  3.05865000e+00 3.61551000e+00 1.13308000e+00	N
atom  3.29759000e+00 2.20308000e+00 2.17467000e+00	Si
atom  3.78187000e+00 6.51871000e-01 1.46844000e+00	N
atom  1.98447000e+00 1.82117000e+00 3.27983000e+00	N
atom  3.00107000e+00 8.63213000e+00 3.25236000e+00	Si
atom  3.42969000e+00 6.99472000e+00 3.11170000e+00	N
atom  3.18719000e+00 9.42406000e+00 1.73171000e+00	N
atom  2.51183000e+00 9.03762000e+00 1.97274000e-01	Si
atom  2.95006000e+00 5.87068000e+00 4.45013000e+00	Si
atom  3.77421000e+00 2.58956000e+00 8.57889000e+00	N
atom  3.72685000e+00 2.83229000e+00 6.87613000e+00	Si
atom  2.18833000e+00 2.85311000e+00 6.07159000e+00	N
atom  2.49796000e+00 2.01913000e+00 9.62348000e+00	Si
atom  2.50024000e+00 6.50845000e+00 8.71954000e+00	N
atom  2.52424000e+00 9.96108000e+00 6.50724000e+00	N
atom  2.29423000e+00 9.59623000e+00 8.19022000e+00	Si
atom  2.21835000e+00 6.84385000e+00 5.65765000e+00	N
atom  3.44627000e+00 8.89799000e+00 9.31330000e+00	N
atom  3.81155000e+00 7.21463000e+00 9.58535000e+00	Si
atom  2.61556000e+00 3.09499000e+00 1.10059000e+01	N
atom  2.97633000e+00 4.03596000e+00 1.42168000e+01	Si
atom  3.02314000e+00 5.26802000e-01 1.03722000e+01	N
atom  2.60315000e+00 6.24682000e-01 1.35934000e+01	N
atom  4.24632000e+00 4.12419000e+00 1.29727000e+01	N
atom  3.59522000e+00 6.82635000e+00 1.12382000e+01	N
atom  2.42445000e+00 7.96537000e+00 1.41395000e+01	Si
atom  3.91628000e+00 8.36671000e+00 1.35065000e+01	N
atom  2.85001000e+00 9.99940000e+00 1.05257000e+01	Si
atom  3.50168000e+00 2.56442000e+00 1.52147000e+01	N
atom  2.91689000e+00 9.73676000e-01 1.52915000e+01	Si
atom  2.94837000e+00 3.01227000e+00 1.82832000e+01	N
atom  2.98201000e+00 5.22329000e+00 1.54742000e+01	N
atom  2.37305000e+00 7.70429000e+00 1.58427000e+01	N
atom  3.88366000e+00 8.20926000e+00 1.66662000e+01	Si
atom  2.04703000e+00 9.32453000e+00 1.79801000e+01	N
atom  3.20289000e+00 8.90525000e+00 1.93355000e+01	Si
atom  4.13298000e+00 7.81424000e+00 1.84120000e+01	N
atom  2.83252000e+00 1.40555000e+00 2.23947000e+01	N
atom  2.83917000e+00 6.72380000e-01 2.07833000e+01	Si
atom  3.96934000e+00 4.15341000e+00 2.24612000e+01	N
atom  2.71189000e+00 4.75180000e+00 2.13797000e+01	Si
atom  4.07395000e+00 2.44844000e+00 2.30757000e+01	Si
atom  3.84439000e+00 5.60065000e+00 2.03338000e+01	N
atom  2.91551000e+00 8.34389000e+00 2.09462000e+01	N
atom  2.97299000e+00 7.38522000e+00 2.24823000e+01	Si
atom  2.12170000e+00 9.60417000e+00 2.19001000e+01	Si
atom  2.21912000e+00 8.72714000e+00 2.34041000e+01	N
atom  1.85992000e+00 6.11454000e+00 2.21982000e+01	N
atom  3.15234000e+00 2.24326000e+00 2.80706000e+01	Si
atom  2.19339000e+00 2.95919000e+00 2.67241000e+01	N
atom  2.85374000e+00 3.34759000e+00 2.52287000e+01	Si
atom  3.30075000e+00 5.02309000e+00 2.53081000e+01	N
atom  4.20575000e+00 2.35043000e+00 2.47723000e+01	N
atom  1.88509000e+00 1.55314000e+00 2.89861000e+01	N
atom  3.99205000e+00 3.56617000e+00 2.89199000e+01	N
atom  3.74588000e+00 9.09246000e+00 2.79263000e+01	N
atom  2.29965000e+00 8.90143000e+00 2.70624000e+01	Si
atom  3.01000000e+00 6.10787000e+00 2.65634000e+01	Si
atom  2.67185000e+00 7.60829000e+00 2.59260000e+01	N
atom  2.96278000e+00 2.37296000e+00 3.21887000e+01	Si
atom  3.62538000e+00 3.92894000e+00 3.16656000e+01	N
atom  3.73045000e+00 5.00731000e+00 3.44480000e+01	N
atom  2.19205000e+00 2.96949000e+00 3.36683000e+01	N
atom  3.82740000e+00 5.26294000e+00 3.27166000e+01	Si
atom  2.66480000e+00 6.46994000e+00 3.22036000e+01	N
atom  2.41047000e+00 9.39563000e+00 3.30499000e+01	N
atom  3.92558000e+00 8.91933000e+00 3.39364000e+01	Si
atom  2.80067000e+00 3.70572000e+00 3.50848000e+01	Si
atom  2.78431000e+00 1.66154000e+00 3.75674000e+01	Si
atom  3.49500000e+00 2.31151000e+00 3.60170000e+01	N
atom  3.99793000e+00 1.93386000e+00 3.87415000e+01	N
atom  1.92837000e+00 5.17068000e+00 3.89929000e+01	N
atom  3.29628000e+00 5.92813000e+00 3.70658000e+01	N
atom  3.26507000e+00 7.81970000e+00 3.50385000e+01	N
atom  3.38674000e+00 7.85895000e+00 3.92159000e+01	N
atom  3.96440000e+00 6.35943000e+00 3.55576000e+01	Si
atom  3.36781000e+00 6.15161000e+00 3.87697000e+01	Si
atom  2.47455000e+00 1.38023000e+01 2.10496000e+00	N
atom  2.25404000e+00 1.20379000e+01 4.39629000e+00	N
atom  3.95482000e+00 1.33246000e+01 1.45341000e+00	Si
atom  3.93023000e+00 1.25325000e+01 -4.74608000e-02	N
atom  3.95948000e+00 1.22668000e+01 4.30732000e+00	Si
atom  3.20998000e+00 1.74834000e+01 4.15449000e+00	Si
atom  3.06646000e+00 1.62868000e+01 2.83008000e+00	N
atom  2.05831000e+00 1.54331000e+01 1.64043000e+00	Si
atom  2.38464000e+00 1.59140000e+01 -1.26389000e-02	N
atom  2.07949000e+00 1.86784000e+01 -3.98981000e-02	Si
atom  3.94107000e+00 1.30595000e+01 9.51369000e+00	N
atom  2.35228000e+00 1.27033000e+01 8.99360000e+00	Si
atom  2.18270000e+00 1.10121000e+01 9.22737000e+00	N
atom  2.11885000e+00 2.02433000e+01 9.13899000e+00	N
atom  4.15804000e+00 1.97248000e+01 7.14761000e+00	N
atom  2.72262000e+00 1.90354000e+01 8.07152000e+00	Si
atom  3.78416000e+00 1.79676000e+01 8.86897000e+00	N
atom  3.19667000e+00 1.35686000e+01 1.22552000e+01	N
atom  2.28330000e+00 1.24790000e+01 1.32036000e+01	Si
atom  3.46437000e+00 1.14745000e+01 1.39910000e+01	N
atom  4.20226000e+00 1.08034000e+01 1.11974000e+01	N
atom  4.15355000e+00 1.25856000e+01 1.11344000e+01	Si
atom  3.49202000e+00 1.52950000e+01 1.24005000e+01	Si
atom  2.74477000e+00 1.59081000e+01 1.38375000e+01	N
atom  2.95785000e+00 1.59808000e+01 1.08436000e+01	N
atom  3.86885000e+00 1.97461000e+01 1.23920000e+01	Si
atom  2.21150000e+00 1.95870000e+01 1.20041000e+01	N
atom  3.32694000e+00 1.74890000e+01 1.46772000e+01	Si
atom  4.22705000e+00 1.68038000e+01 1.00928000e+01	Si
atom  4.19535000e+00 1.81713000e+01 1.31170000e+01	N
atom  2.58547000e+00 1.39466000e+01 1.58510000e+01	N
atom  3.40376000e+00 1.48998000e+01 1.82861000e+01	N
atom  2.32666000e+00 1.11075000e+01 1.80308000e+01	Si
atom  3.90071000e+00 1.37209000e+01 1.70010000e+01	Si
atom  3.69368000e+00 1.22689000e+01 1.78642000e+01	N
atom  3.35693000e+00 1.05997000e+01 1.96700000e+01	N
atom  2.73937000e+00 2.00667000e+01 1.60675000e+01	Si
atom  3.38893000e+00 1.65159000e+01 1.78477000e+01	Si
atom  2.23904000e+00 1.89529000e+01 1.48116000e+01	N
atom  2.02919000e+00 1.54590000e+01 1.53250000e+01	Si
atom  1.95120000e+00 1.92715000e+01 1.74350000e+01	N
atom  2.56005000e+00 1.67905000e+01 1.62954000e+01	N
atom  2.54910000e+00 1.91970000e+01 1.90270000e+01	Si
atom  2.81803000e+00 1.73979000e+01 1.92509000e+01	N
atom  2.56595000e+00 1.29275000e+01 2.08050000e+01	N
atom  3.73758000e+00 1.16716000e+01 2.09507000e+01	Si
atom  3.30400000e+00 1.08119000e+01 2.23932000e+01	N
atom  2.55978000e+00 1.50342000e+01 2.45353000e+01	Si
atom  3.10800000e+00 1.43400000e+01 1.98364000e+01	Si
atom  2.41210000e+00 1.05231000e+01 2.41294000e+01	Si
atom  2.32842000e+00 1.51177000e+01 2.28780000e+01	N
atom  4.14727000e+00 1.90591000e+01 2.26263000e+01	Si
atom  3.80693000e+00 1.59552000e+01 2.23095000e+01	Si
atom  2.49353000e+00 1.95827000e+01 2.27650000e+01	N
atom  4.00372000e+00 1.75830000e+01 2.18103000e+01	N
atom  4.26606000e+00 1.54235000e+01 2.06730000e+01	N
atom  3.91550000e+00 1.10207000e+01 2.48382000e+01	N
atom  2.01289000e+00 1.43775000e+01 2.78672000e+01	N
atom  4.09438000e+00 1.24100000e+01 2.59373000e+01	Si
atom  3.43013000e+00 1.34453000e+01 2.84108000e+01	Si
atom  3.87906000e+00 1.19067000e+01 2.75869000e+01	N
atom  3.48336000e+00 1.05822000e+01 2.87176000e+01	Si
atom  2.87572000e+00 1.35297000e+01 2.54233000e+01	N
atom  3.12627000e+00 1.65136000e+01 2.53271000e+01	N
atom  3.08385000e+00 1.69308000e+01 2.89104000e+01	N
atom  2.87299000e+00 1.84185000e+01 2.98258000e+01	Si
atom  3.14162000e+00 1.29080000e+01 3.37718000e+01	Si
atom  3.34857000e+00 1.42349000e+01 3.27781000e+01	N
atom  3.21880000e+00 1.30816000e+01 3.00626000e+01	N
atom  4.01509000e+00 1.17054000e+01 3.28642000e+01	N
atom  3.10505000e+00 1.06108000e+01 3.18191000e+01	Si
atom  3.97879000e+00 1.03122000e+01 3.03542000e+01	N
atom  3.70380000e+00 1.96941000e+01 3.33315000e+01	N
atom  2.95722000e+00 1.57788000e+01 3.34129000e+01	Si
atom  2.26656000e+00 1.96228000e+01 3.24467000e+01	Si
atom  2.05859000e+00 1.82393000e+01 3.14223000e+01	N
atom  2.01819000e+00 1.05097000e+01 3.94962000e+01	N
atom  3.87969000e+00 1.29820000e+01 3.53023000e+01	N
atom  2.42159000e+00 1.21670000e+01 3.92713000e+01	Si
atom  3.25458000e+00 1.20122000e+01 3.65431000e+01	Si
atom  2.13688000e+00 1.25783000e+01 3.76613000e+01	N
atom  3.78199000e+00 1.65876000e+01 3.92515000e+01	Si
atom  2.75662000e+00 1.59313000e+01 3.51372000e+01	N
atom  3.81710000e+00 1.83047000e+01 3.96881000e+01	N
atom  2.87607000e+00 2.10786000e+01 2.50075000e+00	N
atom  2.47880000e+00 2.27440000e+01 2.37167000e+00	Si
atom  3.91112000e+00 2.36638000e+01 2.83141000e+00	N
atom  4.09685000e+00 2.34187000e+01 4.65402000e+00	Si
atom  1.82086000e+00 2.05135000e+01 -1.20618000e-02	N
atom  3.57589000e+00 2.54762000e+01 2.63082000e+00	Si
atom  2.42582000e+00 2.94507000e+01 3.22268000e+00	Si
atom  2.95469000e+00 2.83399000e+01 4.43948000e+00	N
atom  4.09728000e+00 2.59583000e+01 4.28358000e+00	N
atom  4.05083000e+00 2.94561000e+01 2.54830000e+00	N
atom  1.93190000e+00 2.55839000e+01 1.91690000e+00	N
atom  2.19512000e+00 2.36432000e+01 7.20265000e+00	Si
atom  2.96031000e+00 2.42233000e+01 5.75973000e+00	N
atom  2.49687000e+00 2.18849000e+01 9.18044000e+00	Si
atom  3.33129000e+00 2.24806000e+01 7.73423000e+00	N
atom  4.07519000e+00 2.16699000e+01 5.04451000e+00	N
atom  2.18933000e+00 2.99697000e+01 6.43857000e+00	N
atom  3.90163000e+00 2.94202000e+01 9.54922000e+00	N
atom  2.87325000e+00 2.70200000e+01 6.74012000e+00	N
atom  2.78476000e+00 2.59145000e+01 5.42085000e+00	Si
atom  2.42269000e+00 2.65388000e+01 8.31352000e+00	Si
atom  3.20327000e+00 2.85907000e+01 6.13153000e+00	Si
atom  3.84294000e+00 2.66501000e+01 9.37743000e+00	N
atom  2.60839000e+00 2.31581000e+01 1.34302000e+01	N
atom  3.16636000e+00 2.24179000e+01 1.07077000e+01	N
atom  2.07232000e+00 2.34058000e+01 1.16270000e+01	Si
atom  3.22077000e+00 2.48677000e+01 1.16967000e+01	N
atom  4.10526000e+00 2.07741000e+01 1.37783000e+01	N
atom  3.02351000e+00 2.80544000e+01 1.00126000e+01	Si
atom  2.49881000e+00 2.89055000e+01 1.28516000e+01	Si
atom  2.43189000e+00 2.77133000e+01 1.16368000e+01	N
atom  1.98606000e+00 2.60219000e+01 1.20188000e+01	Si
atom  2.03721000e+00 2.58990000e+01 1.37418000e+01	N
atom  2.66201000e+00 2.43679000e+01 1.60066000e+01	N
atom  2.49754000e+00 2.17287000e+01 1.64932000e+01	N
atom  3.60403000e+00 2.30108000e+01 1.65340000e+01	Si
atom  2.76377000e+00 2.59002000e+01 1.96628000e+01	Si
atom  2.20762000e+00 2.70166000e+01 1.50905000e+01	Si
atom  3.70916000e+00 2.70622000e+01 1.86611000e+01	N
atom  3.90734000e+00 2.70349000e+01 1.56260000e+01	N
atom  3.13371000e+00 2.97618000e+01 1.94564000e+01	N
atom  2.52614000e+00 2.12106000e+01 2.32427000e+01	Si
atom  3.11901000e+00 2.48054000e+01 2.09634000e+01	N
atom  4.08144000e+00 2.14251000e+01 2.40367000e+01	N
atom  2.14062000e+00 2.17655000e+01 2.02219000e+01	Si