lattice_vector  3.99872857e+01 0.00000000e+00 0.00000000e+00
lattice_vector  2.44851507e-15 3.99872857e+01 0.00000000e+00
lattice_vector  2.44851507e-15 2.44851507e-15 3.99872857e+01
atom  4.13810000e+00 3.67504000e+00 4.25503000e-01	N
atom  2.61165000e+00 4.80091000e+00 4.17780000e-01	Si
atom  1.61114000e+00 4.79630000e+00 1.82338000e+00	N
atom  4.29566000e+00 3.00432000e+00 2.04826000e+00	Si
atom  8.94966000e+00 4.40940000e+00 1.02462000e+00	N
atom  8.14758000e+00 1.78404000e+00 1.21107000e+00	N
atom  5.42068000e+00 1.71950000e+00 2.10946000e+00	N
atom  4.80437000e+00 3.80531000e-01 1.17824000e+00	Si
atom  5.01261000e+00 5.24262000e+00 9.50525000e-01	Si
atom  7.25455000e+00 1.09917000e+00 -1.05880000e-01	Si
atom  9.47256000e+00 2.87748000e+00 1.57634000e+00	Si
atom  3.34723000e-02 5.52867000e+00 1.82874000e+00	Si
atom  2.02610000e-01 9.81680000e+00 1.27954000e+00	N
atom  3.66021000e+00 6.19907000e+00 4.05555000e-01	N
atom  9.05221000e-01 8.19227000e+00 1.44964000e+00	Si
atom  4.12020000e+00 8.78433000e+00 1.12519000e+00	N
atom  3.30950000e+00 7.81568000e+00 -5.88646000e-02	Si
atom  1.63368000e+00 8.00490000e+00 -1.13223000e-01	N
atom  -3.64605000e-01 7.14280000e+00 1.79211000e+00	N
atom  5.68234000e+00 9.23909000e+00 5.98675000e-01	Si
atom  6.68509000e+00 9.48749000e+00 2.08202000e+00	N
atom  8.85144000e+00 7.08906000e+00 1.51127000e+00	N
atom  7.86799000e+00 5.66119000e+00 1.63811000e+00	Si
atom  6.57424000e+00 5.76650000e+00 5.38738000e-01	N
atom  8.27757000e+00 8.68116000e+00 2.13713000e+00	Si
atom  9.38642000e+00 9.84318000e+00 1.44074000e+00	N
atom  4.03071000e+00 1.12540000e+00 -2.19571000e-01	N
atom  1.50201000e+00 3.45480000e+00 3.00528000e+00	Si
atom  2.37117000e+00 7.49475000e-01 2.77563000e+00	Si
atom  3.78176000e-02 2.69970000e+00 2.61048000e+00	N
atom  2.76648000e+00 2.42481000e+00 2.50255000e+00	N
atom  7.36124000e+00 2.75753000e+00 3.76483000e+00	N
atom  6.38235000e+00 4.20237000e+00 3.78225000e+00	Si
atom  7.03399000e+00 1.46875000e+00 2.60126000e+00	Si
atom  5.09960000e+00 4.52451000e+00 2.59039000e+00	N
atom  2.07000000e+00 7.95821000e+00 2.77377000e+00	N
atom  3.38529000e+00 9.10125000e+00 2.71973000e+00	Si
atom  1.91722000e-01 9.29180000e+00 3.87405000e+00	N
atom  1.31900000e+00 8.07425000e+00 4.29990000e+00	Si
atom  7.55048000e+00 5.41842000e+00 3.38462000e+00	N
atom  4.65598000e+00 9.10157000e+00 3.84607000e+00	N
atom  8.31619000e+00 8.22327000e+00 3.79964000e+00	N
atom  2.48130000e+00 6.85865000e-01 4.54984000e+00	N
atom  2.36017000e+00 3.12423000e+00 6.05984000e+00	Si
atom  3.84053000e+00 2.26978000e+00 5.87448000e+00	N
atom  3.31803000e-01 5.04453000e+00 4.99503000e+00	Si
atom  3.92474000e+00 4.89445000e-01 5.75094000e+00	Si
atom  1.50423000e+00 3.69648000e+00 4.66769000e+00	N
atom  1.28788000e+00 4.22269000e-01 5.87365000e+00	Si
atom  2.84777000e+00 4.53125000e+00 6.77456000e+00	N
atom  1.99282000e+00 1.03064000e+01 6.37568000e+00	Si
atom  5.36246000e+00 9.32209000e+00 6.52469000e+00	N
atom  4.93517000e+00 3.47666000e+00 6.62621000e+00	Si
atom  5.49882000e+00 4.28435000e+00 5.24763000e+00	N
atom  8.71607000e+00 3.18383000e+00 6.13524000e+00	N
atom  8.89571000e+00 2.42259000e+00 4.57157000e+00	Si
atom  8.93362000e+00 4.84799000e+00 6.74386000e+00	Si
atom  8.00137000e+00 6.65136000e+00 4.50303000e+00	Si
atom  5.30422000e+00 5.84507000e+00 5.93409000e+00	Si
atom  3.95096000e+00 6.87781000e+00 5.79499000e+00	N
atom  2.43748000e+00 6.21230000e+00 6.37474000e+00	Si
atom  1.26019000e+00 6.49859000e+00 5.16007000e+00	N
atom  2.52950000e+00 9.00237000e+00 5.33562000e+00	N
atom  4.21757000e+00 8.55670000e+00 5.41188000e+00	Si
atom  8.60967000e+00 9.47868000e+00 4.90250000e+00	Si
atom  9.29006000e+00 6.08101000e+00 5.57375000e+00	N
atom  6.61998000e+00 8.19227000e+00 6.71903000e+00	Si
atom  8.26184000e+00 8.85214000e+00 6.41706000e+00	N
atom  6.61993000e+00 6.91035000e+00 5.53591000e+00	N
atom  1.41373000e+00 1.46317000e+00 8.45701000e+00	Si
atom  2.81015000e+00 7.84502000e-01 9.07888000e+00	N
atom  3.57026000e-02 3.88922000e-01 8.56943000e+00	N
atom  3.48648000e+00 5.23457000e+00 8.35799000e+00	Si
atom  6.31672000e+00 1.04871000e+00 7.53571000e+00	Si
atom  5.72650000e+00 2.59083000e+00 7.89728000e+00	N
atom  7.12143000e+00 5.30965000e-01 8.94323000e+00	N
atom  5.15092000e+00 5.07353000e+00 7.53836000e+00	N
atom  8.80585000e+00 8.55803000e-01 9.18392000e+00	Si
atom  6.30912000e+00 5.70020000e+00 8.72177000e+00	Si
atom  1.89072000e+00 8.21828000e+00 8.67401000e+00	Si
atom  2.22916000e+00 6.70669000e+00 7.99916000e+00	N
atom  1.20122000e+00 9.54794000e+00 7.66270000e+00	N
atom  -3.04183000e-01 9.63875000e+00 8.49202000e+00	Si
atom  7.85488000e+00 9.81513000e+00 9.05262000e+00	N
atom  7.94043000e+00 5.41045000e+00 8.05521000e+00	N
atom  6.19848000e+00 7.43651000e+00 8.32486000e+00	N
atom  8.83863000e+00 9.99543000e+00 7.67195000e+00	Si
atom  9.21761000e+00 6.11484000e+00 9.00276000e+00	Si
atom  8.97518000e+00 2.62850000e+00 9.15141000e+00	N
atom  1.39865000e+00 1.89902000e+00 6.77264000e+00	N
atom  2.26727000e+00 3.39477000e+00 1.05198000e+01	Si
atom  9.55679000e-01 2.71265000e+00 9.48971000e+00	N
atom  3.63443000e+00 7.88500000e-01 1.06216000e+01	Si
atom  2.33891000e+00 4.83078000e+00 1.15125000e+01	N
atom  3.58323000e+00 3.75676000e+00 9.35180000e+00	N
atom  7.24507000e+00 8.28809000e+00 9.45286000e+00	Si
atom  5.17594000e+00 1.80159000e+00 1.06493000e+01	N
atom  6.24614000e+00 4.48413000e+00 1.00360000e+01	N
atom  5.20272000e+00 3.13839000e+00 9.47969000e+00	Si
atom  3.88943000e-01 8.50161000e+00 9.69256000e+00	N
atom  3.63416000e+00 5.99189000e+00 1.12225000e+01	Si
atom  4.20165000e+00 6.32595000e+00 9.64706000e+00	N
atom  -4.28069000e-01 8.42158000e+00 1.12030000e+01	Si
atom  8.41723000e+00 7.24399000e+00 1.00538000e+01	N
atom  4.82464000e+00 7.89993000e+00 9.39410000e+00	Si
atom  5.96380000e+00 8.46150000e+00 1.06075000e+01	N
atom  3.43280000e+00 8.92894000e+00 9.19309000e+00	N
atom  3.66368000e+00 2.14873000e+00 1.31153000e+01	Si
atom  1.15642000e+00 4.87286000e+00 1.27861000e+01	Si
atom  8.10576000e-01 3.34650000e+00 1.34256000e+01	N
atom  -3.52503000e-01 1.04289000e+00 1.35340000e+01	N
atom  2.53239000e+00 1.02950000e+00 1.38180000e+01	N
atom  3.83448000e+00 5.29963000e+00 1.36225000e+01	Si
atom  8.96559000e+00 4.40167000e+00 1.28408000e+01	Si
atom  6.70466000e+00 3.28307000e+00 1.28040000e+01	N
atom  6.19984000e+00 1.79265000e+00 1.21186000e+01	Si
atom  5.11740000e+00 1.23914000e+00 1.34365000e+01	N
atom  6.46096000e+00 4.71587000e+00 1.17775000e+01	Si
atom  9.41651000e+00 2.80746000e+00 1.20272000e+01	N
atom  3.67396000e+00 9.16867000e+00 1.22828000e+01	Si
atom  3.32542000e-01 7.82995000e+00 1.27391000e+01	N
atom  1.97769000e+00 7.59624000e+00 1.31600000e+01	Si
atom  3.15840000e+00 7.58569000e+00 1.18808000e+01	N
atom  2.43451000e+00 9.22225000e+00 1.35988000e+01	N
atom  2.07377000e+00 5.96304000e+00 1.38920000e+01	N
atom  9.21429000e+00 9.61011000e+00 1.34580000e+01	Si
atom  8.69561000e+00 7.21317000e+00 1.17080000e+01	Si
atom  5.21578000e+00 9.16503000e+00 1.30434000e+01	N
atom  7.97278000e+00 5.56447000e+00 1.20726000e+01	N
atom  8.12107000e+00 8.62433000e+00 1.24894000e+01	N
atom  4.96095000e+00 5.44993000e+00 1.22256000e+01	N
atom  6.54535000e+00 9.33313000e+00 1.19652000e+01	Si
atom  -4.90589000e-01 4.95518000e+00 1.22040000e+01	N
atom  2.89798000e+00 2.17631000e+00 1.15579000e+01	N
atom  6.99587000e+00 2.88957000e-01 1.17742000e+01	N
atom  1.09865000e+00 2.12893000e+00 1.58831000e+01	N
atom  1.03163000e+00 1.83145000e+00 1.41633000e+01	Si
atom  3.68176000e+00 3.56284000e+00 1.40149000e+01	N
atom  4.54652000e+00 3.89786000e+00 1.54797000e+01	Si
atom  7.27411000e+00 3.09384000e+00 1.45391000e+01	Si
atom  8.38078000e+00 4.40805000e+00 1.44826000e+01	N
atom  8.28424000e+00 1.66439000e+00 1.44886000e+01	N
atom  6.12373000e+00 3.16373000e+00 1.58725000e+01	N
atom  4.90575000e+00 5.56885000e+00 1.49555000e+01	N
atom  1.23018000e+00 6.03169000e+00 1.54439000e+01	Si
atom  7.89956000e-03 9.33500000e+00 1.50246000e+01	N
atom  -4.19113000e-01 6.55761000e+00 1.52887000e+01	N
atom  1.79946000e+00 7.48857000e+00 1.61310000e+01	N
atom  8.04354000e+00 8.51542000e+00 1.56848000e+01	Si
atom  6.86811000e+00 9.64519000e+00 1.52360000e+01	N
atom  5.78664000e+00 6.75843000e+00 1.58988000e+01	Si
atom  4.68277000e+00 8.12799000e+00 1.57104000e+01	N
atom  5.18685000e+00 9.43795000e+00 1.47422000e+01	Si
atom  8.78472000e+00 5.61945000e+00 1.56730000e+01	Si
atom  7.48347000e+00 6.91335000e+00 1.54413000e+01	N
atom  9.49681000e+00 8.79141000e+00 1.49282000e+01	N
atom  2.64732000e+00 4.35841000e+00 1.79777000e+01	Si
atom  4.03844000e+00 3.81543000e+00 1.70630000e+01	N
atom  1.50300000e+00 8.95688000e-01 1.69016000e+01	Si
atom  3.00274000e+00 7.89043000e-01 1.77568000e+01	N
atom  1.58761000e+00 4.75449000e+00 1.65681000e+01	N
atom  4.09151000e-01 8.06559000e-01 1.81935000e+01	N
atom  3.73315000e-01 3.54837000e+00 1.66049000e+01	Si
atom  1.38269000e-02 3.56379000e+00 1.82669000e+01	N
atom  5.60422000e+00 3.21247000e+00 1.76004000e+01	Si
atom  5.39889000e+00 1.62972000e+00 1.82324000e+01	N
atom  8.98505000e+00 7.85520000e-01 1.83964000e+01	Si
atom  8.50470000e+00 5.03806000e+00 1.73112000e+01	N
atom  9.35665000e+00 2.11917000e+00 1.73093000e+01	N
atom  -2.89540000e-01 8.97814000e+00 1.77676000e+01	N
atom  3.20309000e+00 8.21812000e+00 1.67583000e+01	Si
atom  2.35429000e+00 9.84069000e+00 1.67527000e+01	N
atom  3.18268000e+00 7.97200000e+00 1.84354000e+01	N
atom  8.55088000e-01 8.83173000e+00 1.65562000e+01	Si
atom  5.86805000e+00 6.61704000e+00 1.75958000e+01	N
atom  7.83208000e+00 8.90354000e+00 1.74611000e+01	N
atom  9.02153000e+00 9.64471000e+00 1.84870000e+01	Si
atom  5.44460000e+00 9.48669000e+00 1.79589000e+01	N
atom  7.19571000e+00 5.68869000e+00 1.82591000e+01	Si
atom  6.52460000e+00 8.08414000e+00 1.84886000e+01	Si
atom  6.63035000e+00 1.01913000e+01 1.69573000e+01	Si
atom  2.42352000e+00 4.00479000e+00 2.04759000e+01	Si
atom  2.37970000e+00 2.91113000e+00 1.90976000e+01	N
atom  8.05876000e-01 2.25508000e+00 1.91341000e+01	Si
atom  3.80763000e+00 1.67463000e+00 1.89589000e+01	Si
atom  3.96256000e+00 1.00094000e+00 2.05658000e+01	N
atom  2.98452000e-01 1.85342000e+00 2.07190000e+01	N
atom  8.49550000e+00 1.22679000e+00 2.00263000e+01	N
atom  6.56943000e+00 4.37438000e+00 2.06044000e+01	Si
atom  6.34770000e+00 4.21357000e+00 1.88195000e+01	N
atom  8.21821000e+00 4.90110000e+00 2.05961000e+01	N
atom  2.75881000e+00 5.30033000e+00 1.94187000e+01	N
atom  6.72385000e-01 6.91948000e+00 1.96526000e+01	N
atom  2.37551000e+00 7.04094000e+00 1.96284000e+01	Si
atom  4.03548000e-01 9.73934000e+00 2.02635000e+01	N
atom  -2.12805000e-01 8.37266000e+00 1.93735000e+01	Si
atom  4.29042000e+00 9.12808000e+00 1.91693000e+01	Si
atom  2.05979000e+00 9.88221000e+00 2.08351000e+01	Si
atom  8.49071000e+00 6.68059000e+00 2.07628000e+01	Si
atom  7.69399000e+00 6.98777000e+00 1.92597000e+01	N
atom  9.44341000e+00 9.39224000e+00 2.01558000e+01	N
atom  5.49423000e+00 8.12279000e+00 1.99322000e+01	N
atom  3.70872000e+00 3.60534000e+00 2.15347000e+01	N
atom  8.93688000e-01 4.45683000e+00 2.12767000e+01	N
atom  1.58706000e+00 5.12004000e+00 2.27317000e+01	Si
atom  4.50224000e+00 4.84492000e+00 2.23961000e+01	Si
atom  -4.01706000e-01 3.21329000e+00 2.14018000e+01	Si
atom  4.66382000e+00 1.74433000e+00 2.33209000e+01	N
atom  4.67923000e+00 2.20737000e+00 2.16541000e+01	Si
atom  8.90598000e+00 2.98543000e+00 2.21399000e+01	N
atom  7.77936000e+00 2.01898000e+00 2.14250000e+01	Si
atom  6.24834000e+00 2.77261000e+00 2.11875000e+01	N
atom  7.58774000e+00 5.55300000e-01 2.22826000e+01	N
atom  3.17468000e+00 7.70930000e+00 2.25001000e+01	Si
atom  5.76056000e-01 6.51039000e+00 2.25843000e+01	N
atom  3.14672000e+00 5.95034000e+00 2.24990000e+01	N
atom  5.53973000e-02 6.07368000e+00 2.09777000e+01	Si
atom  2.56174000e+00 8.21625000e+00 2.09958000e+01	N
atom  5.91859000e+00 7.30480000e+00 2.14626000e+01	Si
atom  4.88473000e+00 8.06799000e+00 2.26611000e+01	N
atom  7.52809000e+00 7.52008000e+00 2.19896000e+01	N
atom  5.70398000e+00 5.57587000e+00 2.14629000e+01	N
atom  1.67109000e+00 4.36547000e+00 2.41649000e+01	N
atom  1.52469000e+00 1.23677000e+00 2.52359000e+01	N
atom  4.49152000e+00 5.27688000e+00 2.53748000e+01	Si
atom  4.62747000e+00 9.56896000e+00 2.49259000e+01	N
atom  3.83916000e+00 3.20165000e-01 2.56059000e+01	N
atom  9.12989000e+00 7.13442000e+00 2.45151000e+01	N
atom  5.03484000e+00 4.41336000e+00 2.39663000e+01	N
atom  5.39320000e+00 2.83683000e+00 2.46040000e+01	Si
atom  6.77369000e+00 1.93367000e+00 2.48304000e+01	N
atom  6.86348000e+00 4.50796000e-01 2.37961000e+01	Si
atom  5.50035000e+00 8.29995000e+00 2.42543000e+01	Si
atom  2.45504000e+00 8.00379000e+00 2.40615000e+01	N
atom  2.96572000e+00 9.12997000e+00 2.53554000e+01	Si
atom  -1.61879000e-01 9.01160000e+00 2.38751000e+01	N
atom  6.97402000e-01 7.43770000e+00 2.40355000e+01	Si
atom  4.83785000e-01 6.35754000e+00 2.54140000e+01	N
atom  5.22298000e+00 6.93830000e+00 2.52678000e+01	N
atom  7.14222000e+00 8.63919000e+00 2.45832000e+01	N
atom  8.36581000e+00 8.22550000e+00 2.33510000e+01	Si
atom  9.20478000e+00 9.66894000e+00 2.34036000e+01	N
atom  6.12611000e-01 3.67007000e+00 2.66888000e+01	N
atom  3.43119000e-01 1.91233000e+00 2.63311000e+01	Si
atom  2.96309000e+00 1.72577000e+00 2.60565000e+01	Si
atom  3.02674000e+00 1.46519000e+00 2.78328000e+01	N
atom  3.16358000e-01 8.19271000e-01 2.77196000e+01	N
atom  4.06548000e+00 3.01393000e+00 2.59149000e+01	N
atom  4.43109000e+00 3.83099000e+00 2.75156000e+01	Si
atom  8.52001000e+00 3.91516000e+00 2.70836000e+01	N
atom  7.54613000e+00 1.16206000e+00 2.73750000e+01	N
atom  5.51792000e+00 4.93903000e+00 2.68247000e+01	N
atom  7.30289000e+00 2.81002000e+00 2.79493000e+01	Si
atom  2.68934000e+00 8.66103000e+00 2.69405000e+01	N
atom  3.01965000e+00 5.61943000e+00 2.62797000e+01	N
atom  3.01644000e+00 6.93770000e+00 2.75102000e+01	Si
atom  -3.02578000e-01 8.03160000e+00 2.76553000e+01	N
atom  8.24279000e+00 8.00876000e+00 2.58190000e+01	Si
atom  7.37633000e+00 7.45116000e+00 2.71422000e+01	N
atom  9.50114000e+00 9.24468000e+00 2.61545000e+01	N
atom  5.83428000e+00 6.65359000e+00 2.68993000e+01	Si
atom  1.50358000e+00 4.99795000e+00 2.57346000e+01	Si
atom  8.11955000e+00 1.29533000e+00 2.57765000e+01	Si
atom  3.12623000e-01 4.55260000e+00 2.92680000e+01	N
atom  3.34438000e+00 4.33858000e+00 2.88045000e+01	N
atom  1.66081000e+00 6.30757000e-01 3.01372000e+01	N
atom  4.49066000e+00 8.62609000e-01 3.01888000e+01	N
atom  7.76800000e+00 7.49661000e+00 2.89053000e+01	Si
atom  2.01369000e+00 5.17653000e+00 2.95138000e+01	Si
atom  4.65458000e+00 1.28839000e+00 2.85406000e+01	Si
atom  8.96393000e+00 4.53113000e+00 2.87195000e+01	Si
atom  8.15180000e+00 3.08278000e+00 2.93595000e+01	N
atom  7.12326000e+00 5.78953000e-01 3.01603000e+01	N
atom  5.52006000e+00 2.70100000e+00 2.81952000e+01	N
atom  7.60970000e-01 8.06238000e+00 2.90351000e+01	Si
atom  1.89520000e+00 6.76892000e+00 2.87473000e+01	N
atom  1.38635000e+00 9.81459000e+00 2.92899000e+01	N
atom  4.11297000e+00 9.59392000e+00 2.93004000e+01	N
atom  2.80616000e+00 9.95607000e+00 2.82348000e+01	Si
atom  4.63735000e+00 7.15125000e+00 2.80265000e+01	N
atom  6.41403000e+00 7.76213000e+00 2.99532000e+01	N
atom  9.19409000e+00 8.54511000e+00 2.89544000e+01	N
atom  8.32543000e+00 5.94471000e+00 2.94360000e+01	N
atom  4.74451000e+00 8.00355000e+00 2.95414000e+01	Si
atom  6.82917000e-01 3.08718000e+00 3.13965000e+01	N
atom  3.21951000e+00 2.43898000e+00 3.17532000e+01	N
atom  3.04574000e+00 8.41771000e-01 3.11126000e+01	Si
atom  4.03378000e-01 1.41982000e+00 3.10583000e+01	Si
atom  2.16255000e+00 3.75442000e+00 3.19865000e+01	Si
atom  4.18774000e-01 7.26914000e-01 3.27546000e+01	N
atom  2.25959000e+00 5.25061000e+00 3.12153000e+01	N
atom  5.75938000e+00 4.67538000e-01 3.11994000e+01	Si
atom  7.98382000e+00 3.09198000e+00 3.20051000e+01	N
atom  8.20919000e+00 1.95426000e+00 3.06590000e+01	Si
atom  9.22216000e+00 7.26766000e-01 3.12355000e+01	N
atom  5.66075000e+00 1.42996000e+00 3.25825000e+01	N
atom  6.82888000e+00 4.21652000e+00 3.27158000e+01	Si
atom  -1.41594000e-01 7.00401000e+00 3.20560000e+01	Si
atom  2.95741000e+00 6.72201000e+00 3.19576000e+01	Si
atom  1.53276000e+00 7.68396000e+00 3.23867000e+01	N
atom  4.25617000e+00 7.27225000e+00 3.10164000e+01	N
atom  8.38868000e+00 8.05859000e+00 3.16536000e+01	N
atom  5.98783000e+00 7.18379000e+00 3.15990000e+01	Si
atom  7.04829000e+00 5.77104000e+00 3.19657000e+01	N
atom  8.48452000e+00 6.37193000e+00 3.11397000e+01	Si
atom  -3.95480000e-01 4.23765000e+00 3.07834000e+01	Si
atom  -4.55142000e-01 5.27640000e+00 3.21929000e+01	N
atom  -2.85511000e-01 7.77521000e+00 3.04183000e+01	N
atom  2.62480000e+00 3.94853000e+00 3.37050000e+01	N
atom  -3.00847000e-03 3.13542000e+00 3.41704000e+01	N
atom  4.16952000e+00 4.86509000e+00 3.40154000e+01	Si
atom  1.55833000e+00 3.32381000e+00 3.48917000e+01	Si
atom  4.33163000e+00 2.55289000e+00 3.30417000e+01	Si
atom  5.92193000e+00 8.35070000e+00 3.30433000e+01	N
atom  4.61031000e+00 2.10264000e+00 3.47733000e+01	N
atom  7.39866000e+00 3.67167000e+00 3.44008000e+01	N
atom  5.82852000e+00 1.00349000e+00 3.42592000e+01	Si
atom  8.30867000e+00 2.30290000e+00 3.48171000e+01	Si
atom  5.10069000e+00 4.08438000e+00 3.28643000e+01	N
atom  4.97645000e+00 9.09891000e+00 3.43621000e+01	Si
atom  3.54117000e+00 6.37681000e+00 3.36021000e+01	N
atom  3.11568000e+00 7.58151000e+00 3.47844000e+01	Si
atom  5.34566000e-01 9.66367000e+00 3.42057000e+01	N
atom  1.85602000e+00 9.25343000e+00 3.30747000e+01	Si
atom  3.30346000e+00 9.09000000e+00 3.38946000e+01	N
atom  8.10208000e+00 8.73585000e+00 3.45739000e+01	N
atom  7.58637000e+00 8.90129000e+00 3.29554000e+01	Si
atom  7.36318000e+00 8.33757000e-01 3.49391000e+01	N
atom  1.47722000e+00 4.54778000e+00 3.61324000e+01	N
atom  3.81670000e+00 2.09356000e+00 3.63102000e+01	Si
atom  2.15118000e+00 1.95173000e+00 3.57078000e+01	N
atom  4.17644000e+00 6.67468000e-01 3.71308000e+01	N
atom  1.35288000e+00 4.50376000e-01 3.59798000e+01	Si
atom  -3.29846000e-01 9.50797000e-01 3.56173000e+01	N
atom  6.92206000e+00 4.76614000e+00 3.55492000e+01	Si
atom  8.50181000e+00 2.12987000e+00 3.65795000e+01	N
atom  6.69710000e+00 4.12440000e+00 3.71246000e+01	N
atom  5.09045000e+00 4.91625000e+00 3.71346000e+01	Si
atom  5.22947000e+00 5.10936000e+00 3.54270000e+01	N
atom  7.79947000e+00 3.45486000e-01 3.66344000e+01	Si
atom  4.67898000e-01 8.72607000e+00 3.55683000e+01	Si
atom  6.68800000e-01 6.09601000e+00 3.60990000e+01	Si
atom  1.19390000e+00 9.13553000e+00 3.71540000e+01	N
atom  1.56117000e+00 7.33762000e+00 3.53569000e+01	N
atom  3.49185000e+00 5.90783000e+00 3.73901000e+01	N
atom  4.54889000e+00 7.37938000e+00 3.72359000e+01	Si
atom  4.58608000e+00 8.00458000e+00 3.56873000e+01	N
atom  8.05899000e+00 6.05513000e+00 3.55992000e+01	N
atom  8.80294000e+00 6.89342000e+00 3.70378000e+01	Si
atom  8.49510000e+00 8.55288000e+00 3.72860000e+01	N
atom  8.89923000e+00 9.48632000e+00 3.58554000e+01	Si
atom  1.74942000e+00 4.37394000e+00 3.89244000e+01	N
atom  7.51697000e-02 4.87316000e+00 3.86625000e+01	Si
atom  7.39147000e+00 9.51291000e+00 3.82505000e+01	Si
atom  2.57543000e+00 4.49408000e+00 3.74496000e+01	Si
atom  4.05681000e+00 3.41008000e+00 3.75274000e+01	N
atom  4.70881000e+00 2.58716000e+00 3.90738000e+01	Si
atom  9.23336000e+00 3.56032000e+00 3.83738000e+01	N
atom  6.42090000e+00 2.35393000e+00 3.91050000e+01	N
atom  7.61472000e+00 2.98479000e+00 3.79307000e+01	Si
atom  8.23163000e+00 5.21070000e-01 3.85201000e+01	N
atom  9.48694000e+00 4.95407000e+00 3.94173000e+01	Si
atom  6.21827000e-01 7.97542000e+00 3.84085000e+01	Si
atom  4.11251000e+00 8.52406000e+00 3.84610000e+01	N
atom  3.14136000e-01 6.38957000e+00 3.77613000e+01	N
atom  6.80061000e+00 8.43355000e+00 3.95549000e+01	N
atom  5.83464000e+00 6.43893000e+00 3.78449000e+01	N
atom  6.95411000e+00 6.70157000e+00 3.91308000e+01	Si
atom  8.52004000e+00 6.15427000e+00 3.86189000e+01	N
atom  2.80185000e-01 1.32680000e+01 3.05785000e-01	N
atom  3.72704000e+00 1.44506000e+01 1.42976000e+00	Si
atom  2.58977000e+00 1.30760000e+01 1.41754000e+00	N
atom  9.09178000e-01 1.33388000e+01 1.93442000e+00	Si
atom  7.34686000e+00 1.24118000e+01 7.89832000e-01	N
atom  5.28238000e+00 1.37829000e+01 1.15823000e+00	N
atom  5.65814000e+00 1.20754000e+01 1.05709000e+00	Si
atom  8.81860000e+00 1.13497000e+01 6.18620000e-01	Si
atom  7.11653000e+00 1.41888000e+01 9.37703000e-01	Si
atom  5.11938000e+00 1.09169000e+01 -1.51270000e-01	N
atom  4.04148000e+00 1.79615000e+01 1.67016000e+00	N
atom  3.36798000e+00 1.56412000e+01 1.85395000e-01	N
atom  3.55638000e+00 1.96893000e+01 1.75281000e+00	Si
atom  8.21012000e-01 1.72209000e+01 1.79697000e+00	N
atom  4.29282000e+00 1.71060000e+01 1.54866000e-01	Si
atom  -1.32868000e-01 2.02377000e+01 2.64359000e-01	N
atom  9.52743000e+00 1.98979000e+01 6.00594000e-02	N
atom  6.41186000e+00 1.99503000e+01 2.10898000e+00	Si
atom  8.14917000e+00 1.52381000e+01 -1.52173000e-02	N
atom  7.16212000e+00 1.78007000e+01 3.24149000e-01	Si
atom  8.16617000e+00 1.74188000e+01 1.65817000e+00	N
atom  9.31128000e+00 1.61086000e+01 9.09553000e-01	Si
atom  6.19098000e+00 1.92977000e+01 4.75008000e-01	N
atom  1.81156000e+00 1.26211000e+01 -2.26452000e-01	Si
atom  5.23043000e-01 1.21035000e+01 3.03008000e+00	N
atom  8.46256000e-01 1.47454000e+01 2.78274000e+00	N
atom  3.26687000e+00 1.20510000e+01 2.73821000e+00	Si
atom  2.84659000e+00 1.30237000e+01 4.13815000e+00	N
atom  2.47709000e+00 1.04959000e+01 2.55388000e+00	N
atom  7.62705000e-01 1.04388000e+01 2.75819000e+00	Si
atom  -5.36858000e-01 1.47452000e+01 3.86392000e+00	Si
atom  4.95789000e+00 1.16027000e+01 2.62113000e+00	N
atom  7.69812000e+00 1.44268000e+01 2.57891000e+00	N
atom  6.73804000e+00 1.49270000e+01 3.99904000e+00	Si
atom  9.36885000e+00 1.39040000e+01 2.79663000e+00	Si
atom  -2.61225000e-01 1.89553000e+01 3.78826000e+00	N
atom  3.47602000e+00 1.54389000e+01 2.91525000e+00	N
atom  1.11121000e+00 1.84892000e+01 2.99013000e+00	Si
atom  1.91865000e+00 1.73764000e+01 3.99150000e+00	N
atom  1.79768000e+00 1.61551000e+01 2.77931000e+00	Si
atom  1.87101000e+00 1.98613000e+01 2.32351000e+00	N
atom  4.52675000e+00 1.69470000e+01 3.01128000e+00	Si
atom  7.58998000e+00 1.75255000e+01 3.25847000e+00	Si
atom  6.11791000e+00 1.63772000e+01 3.18636000e+00	N
atom  6.63715000e+00 1.89070000e+01 3.49443000e+00	N
atom  8.93981000e+00 1.79885000e+01 4.41323000e+00	N
atom  9.38210000e+00 1.22070000e+01 2.58091000e+00	N
atom  5.87928000e+00 1.03143000e+01 3.36594000e+00	Si
atom  7.88295000e-01 1.14115000e+01 5.66084000e+00	N
atom  2.48674000e-01 1.39881000e+01 5.23049000e+00	N
atom  1.17356000e+00 1.26737000e+01 4.56423000e+00	Si
atom  3.66839000e+00 1.46021000e+01 4.52609000e+00	Si
atom  7.90608000e+00 1.32734000e+01 4.75569000e+00	N
atom  8.90543000e+00 1.45747000e+01 5.33671000e+00	Si
atom  7.35300000e+00 1.19012000e+01 5.64562000e+00	Si
atom  5.32597000e+00 1.44063000e+01 4.96375000e+00	N
atom  5.94347000e+00 1.22521000e+01 6.56032000e+00	N
atom  -2.23280000e-01 1.36580000e+01 6.83350000e+00	Si
atom  7.68239000e+00 1.58719000e+01 5.09484000e+00	N
atom  2.96829000e+00 1.73727000e+01 5.41872000e+00	Si
atom  3.12679000e+00 1.56811000e+01 5.83118000e+00	N
atom  4.45147000e+00 1.76887000e+01 4.61296000e+00	N
atom  2.77040000e+00 1.83735000e+01 6.81897000e+00	N
atom  6.84634000e+00 1.84870000e+01 6.24597000e+00	N
atom  5.68485000e+00 1.88150000e+01 4.93772000e+00	Si
atom  8.19003000e+00 1.74027000e+01 5.84934000e+00	Si
atom  5.45338000e+00 1.39308000e+01 6.72827000e+00	Si
atom  7.15241000e+00 1.06139000e+01 4.56182000e+00	N
atom  1.12207000e+00 1.30613000e+01 7.80581000e+00	N
atom  2.78730000e+00 1.25985000e+01 7.82627000e+00	Si
atom  3.89956000e+00 1.38381000e+01 7.52134000e+00	N
atom  8.17718000e+00 1.54835000e+01 7.86079000e+00	Si
atom  5.73238000e+00 1.59225000e+01 9.14243000e+00	Si
atom  5.33441000e+00 1.08312000e+01 8.95250000e+00	N
atom  8.84489000e+00 1.28362000e+01 8.04697000e+00	Si
atom  5.05785000e+00 1.08814000e+01 7.18767000e+00	Si
atom  8.95674000e+00 1.42373000e+01 7.02482000e+00	N
atom  6.40337000e+00 1.51422000e+01 7.67181000e+00	N
atom  8.54191000e+00 1.14780000e+01 6.89509000e+00	N
atom  8.98118000e+00 1.68725000e+01 7.29488000e+00	N
atom  4.36528000e-01 1.52774000e+01 9.00381000e+00	Si
atom  3.72236000e+00 1.83054000e+01 8.19419000e+00	Si
atom  2.05003000e+00 1.57394000e+01 8.90784000e+00	N
atom  3.69397000e-01 1.93617000e+01 8.29957000e+00	N
atom  4.30540000e+00 1.66423000e+01 8.25918000e+00	N
atom  3.19564000e+00 1.54745000e+01 7.63625000e+00	Si
atom  6.05478000e+00 1.99039000e+01 6.97785000e+00	Si
atom  5.08536000e+00 1.93874000e+01 8.32285000e+00	N
atom  -4.69950000e-01 1.11737000e+01 9.28224000e+00	N
atom  3.37563000e+00 1.12049000e+01 6.95064000e+00	N
atom  3.07866000e-01 1.39328000e+01 1.01093000e+01	N
atom  2.84620000e+00 1.21464000e+01 1.11978000e+01	Si
atom  3.74312000e+00 1.05141000e+01 9.59973000e+00	Si
atom  1.21133000e+00 1.16636000e+01 1.13244000e+01	N
atom  8.66224000e-01 1.23420000e+01 9.53238000e+00	Si
atom  2.72724000e+00 1.19712000e+01 9.46610000e+00	N
atom  3.68821000e+00 1.06102000e+01 1.13478000e+01	N
atom  5.11179000e+00 1.94358000e+01 1.11416000e+01	N
atom  6.95082000e+00 1.10877000e+01 9.76910000e+00	Si
atom  7.45903000e+00 1.39512000e+01 1.02988000e+01	Si
atom  5.82343000e+00 1.45972000e+01 1.03722000e+01	N
atom  8.34364000e+00 1.52202000e+01 9.53430000e+00	N
atom  6.88287000e+00 1.09783000e+01 1.15141000e+01	N
atom  -1.58664000e-01 1.87058000e+01 1.06926000e+01	N
atom  1.27163000e+00 1.93926000e+01 9.81815000e+00	Si
atom  2.65645000e+00 1.83636000e+01 9.61266000e+00	N
atom  2.59487000e+00 1.67914000e+01 1.02394000e+01	Si
atom  -2.50120000e-01 1.69203000e+01 1.14584000e+01	Si
atom  4.02742000e+00 1.63725000e+01 1.13124000e+01	N
atom  7.53547000e+00 1.98827000e+01 9.70346000e+00	N
atom  6.04761000e+00 1.91171000e+01 9.72014000e+00	Si
atom  6.16803000e+00 1.73476000e+01 1.00219000e+01	N
atom  7.61509000e+00 1.25913000e+01 9.22033000e+00	N
atom  3.56456000e+00 1.35715000e+01 1.17998000e+01	N
atom  1.51167000e+00 1.68567000e+01 1.16264000e+01	N
atom  5.18596000e+00 1.77815000e+01 1.16352000e+01	Si
atom  4.84988000e-04 1.14397000e+01 1.37659000e+01	N
atom  -3.06015000e-01 1.13456000e+01 1.20917000e+01	Si
atom  9.52974000e+00 1.42828000e+01 1.26727000e+01	Si
atom  7.62939000e+00 1.20650000e+01 1.26921000e+01	Si
atom  8.82194000e+00 1.13066000e+01 1.36161000e+01	N
atom  5.62469000e+00 1.50414000e+01 1.32199000e+01	N
atom  8.29965000e+00 1.33442000e+01 1.17217000e+01	N
atom  8.55378000e+00 1.49041000e+01 1.38940000e+01	N
atom  4.73060000e+00 1.48415000e+01 1.17051000e+01	Si
atom  2.39333000e+00 1.70167000e+01 1.30943000e+01	Si
atom  3.03674000e+00 1.55608000e+01 1.38762000e+01	N
atom  3.36062000e+00 1.83636000e+01 1.34084000e+01	N
atom  7.71984000e+00 1.86366000e+01 1.36164000e+01	Si
atom  9.04805000e+00 1.85168000e+01 1.25172000e+01	N
atom  6.10680000e+00 1.79689000e+01 1.31213000e+01	N
atom  5.75486000e-01 1.26740000e+01 1.48737000e+01	Si
atom  2.00581000e+00 1.18056000e+01 1.51579000e+01	N
atom  4.01488000e-01 1.43502000e+01 1.44397000e+01	N
atom  4.43871000e+00 1.35784000e+01 1.53420000e+01	N
atom  1.27878000e+00 1.03137000e+01 1.43387000e+01	Si
atom  4.53555000e+00 1.09116000e+01 1.53646000e+01	N
atom  4.51402000e+00 1.51329000e+01 1.45395000e+01	Si
atom  5.56042000e+00 1.23333000e+01 1.53779000e+01	Si
atom  6.79340000e+00 1.47938000e+01 1.57965000e+01	N
atom  6.94746000e+00 1.43356000e+01 1.41099000e+01	Si
atom  6.59169000e+00 1.26627000e+01 1.39194000e+01	N
atom  8.15437000e+00 1.75516000e+01 1.49567000e+01	N
atom  1.72216000e+00 1.53891000e+01 1.49582000e+01	Si
atom  1.23326000e+00 1.69692000e+01 1.45342000e+01	N
atom  3.42931000e+00 2.00191000e+01 1.42423000e+01	Si
atom  9.24345000e+00 1.61296000e+01 1.49545000e+01	Si
atom  4.79072000e+00 1.94477000e+01 1.51373000e+01	N
atom  4.82545000e+00 1.79465000e+01 1.42803000e+01	Si
atom  4.93792000e+00 1.66520000e+01 1.52933000e+01	N
atom  -2.26079000e-01 1.92414000e+01 1.52782000e+01	N
atom  -3.11057000e-01 1.76776000e+01 1.45494000e+01	Si
atom  9.20663000e+00 1.28000000e+01 1.64743000e+01	N
atom  3.62812000e+00 1.24245000e+01 1.76567000e+01	N
atom  3.67154000e+00 1.39523000e+01 1.68084000e+01	Si
atom  2.23639000e+00 1.49114000e+01 1.65367000e+01	N
atom  2.80586000e-01 1.39144000e+01 1.84467000e+01	N
atom  3.19963000e+00 1.12837000e+01 1.63242000e+01	Si
atom  1.41340000e+00 1.51957000e+01 1.80404000e+01	Si
atom  6.37181000e+00 1.19484000e+01 1.69253000e+01	N
atom  8.18530000e+00 1.41689000e+01 1.67522000e+01	Si
atom  7.37234000e+00 1.40122000e+01 1.83611000e+01	N
atom  6.84937000e+00 1.23726000e+01 1.85471000e+01	Si
atom  7.29124000e+00 1.97542000e+01 1.67362000e+01	N
atom  9.33580000e+00 1.55392000e+01 1.65901000e+01	N
atom  2.87909000e+00 1.95365000e+01 1.80230000e+01	N
atom  1.47000000e-01 1.63778000e+01 1.80389000e+01	N
atom  4.59173000e+00 1.52582000e+01 1.75982000e+01	N
atom  5.81474000e+00 1.60186000e+01 1.66601000e+01	Si
atom  7.99932000e+00 1.81571000e+01 1.65193000e+01	Si
atom  6.83703000e+00 1.71484000e+01 1.74058000e+01	N
atom  6.98919000e+00 2.01700000e+01 1.83739000e+01	Si
atom  3.84414000e+00 1.21670000e+01 1.93204000e+01	Si
atom  3.01815000e+00 1.30697000e+01 2.05613000e+01	N
atom  -2.35239000e-01 1.40689000e+01 2.01977000e+01	Si
atom  3.39035000e+00 1.04854000e+01 1.98487000e+01	N
atom  7.66739000e+00 1.62681000e+01 1.98793000e+01	N
atom  5.56922000e+00 1.22555000e+01 1.97779000e+01	N
atom  6.92950000e+00 1.47106000e+01 1.99385000e+01	Si
atom  8.72689000e+00 1.09298000e+01 2.04339000e+01	Si
atom  5.25899000e+00 1.49958000e+01 2.02028000e+01	N
atom  8.01431000e+00 1.11134000e+01 1.88452000e+01	N
atom  9.29164000e+00 1.63171000e+01 2.05215000e+01	Si
atom  8.58274000e-01 2.03282000e+01 2.04056000e+01	N
atom  2.52170000e+00 1.57860000e+01 1.92472000e+01	N
atom  4.22159000e+00 1.59685000e+01 1.90857000e+01	Si
atom  4.24714000e+00 1.92773000e+01 1.91076000e+01	Si
atom  1.92496000e+00 1.61746000e+01 2.08345000e+01	Si