lattice_vector  3.99101468e+01 0.00000000e+00 0.00000000e+00
lattice_vector  2.44379167e-15 3.99101468e+01 0.00000000e+00
lattice_vector  2.44379167e-15 2.44379167e-15 3.99101468e+01
atom  1.53087000e+00 1.89493000e+00 3.54389000e+00	Si
atom  3.28594000e+00 1.59053000e+00 6.78670000e-01	N
atom  3.85540000e+00 2.27136000e+00 2.17595000e+00	Si
atom  9.65814000e-02 1.71319000e+00 9.20943000e-01	N
atom  1.71572000e+00 9.55495000e-01 9.14542000e-01	Si
atom  -9.82072000e-02 2.17200000e+00 3.80521000e+00	N
atom  1.86138000e+00 4.52465000e-01 2.61549000e+00	N
atom  4.51937000e+00 1.43792000e+00 3.51573000e+00	N
atom  7.26943000e+00 2.09139000e+00 1.91121000e+00	N
atom  8.10952000e+00 1.92696000e+00 4.72216000e+00	N
atom  7.60540000e+00 4.43612000e-01 1.61159000e+00	Si
atom  3.95262000e+00 1.85196000e+00 5.10611000e+00	Si
atom  2.23425000e+00 2.19966000e+00 5.04534000e+00	N
atom  -2.87655000e-01 1.84159000e+00 6.34056000e+00	N
atom  2.97792000e-01 8.16093000e-01 7.57452000e+00	Si
atom  3.39823000e+00 1.63018000e+00 9.41953000e+00	N
atom  5.96447000e-01 1.49273000e+00 9.19786000e+00	N
atom  2.05178000e+00 5.46447000e-01 9.30792000e+00	Si
atom  4.11645000e+00 5.03001000e-01 6.17741000e+00	N
atom  6.62817000e+00 1.63827000e+00 6.91971000e+00	N
atom  8.16022000e+00 2.37507000e+00 6.41643000e+00	Si
atom  7.96922000e+00 1.84755000e+00 9.38465000e+00	N
atom  1.46082000e+00 1.21261000e+00 1.34108000e+01	N
atom  3.19254000e+00 1.72622000e+00 1.30292000e+01	Si
atom  -1.44360000e-01 1.52080000e+00 1.28093000e+01	Si
atom  3.63525000e+00 1.39874000e+00 1.46298000e+01	N
atom  3.93538000e+00 6.11111000e-01 1.19555000e+01	N
atom  4.71405000e+00 1.19065000e+00 1.04594000e+01	Si
atom  7.18681000e+00 1.90609000e+00 1.19473000e+01	Si
atom  6.98154000e+00 2.04062000e+00 1.36948000e+01	N
atom  8.32263000e+00 1.35591000e+00 1.45679000e+01	Si
atom  5.73165000e+00 2.49359000e+00 1.11612000e+01	N
atom  9.38979000e-01 2.01864000e+00 1.80044000e+01	Si
atom  3.82648000e+00 1.46798000e+00 1.75058000e+01	N
atom  1.55320000e+00 6.02025000e-01 1.88904000e+01	N
atom  -3.09092000e-01 1.70389000e+00 1.69017000e+01	N
atom  4.58639000e+00 1.67625000e+00 1.90587000e+01	Si
atom  8.14427000e+00 1.32314000e+00 1.62960000e+01	N
atom  8.88448000e+00 1.88700000e+00 1.77503000e+01	Si
atom  7.72485000e+00 2.52548000e+00 1.87808000e+01	N
atom  9.32143000e+00 6.90921000e-01 1.90134000e+01	N
atom  4.61334000e+00 1.47622000e+00 1.60181000e+01	Si
atom  7.58298000e+00 1.01875000e+00 1.97206000e+01	Si
atom  3.99060000e+00 1.80887000e+00 2.30893000e+01	N
atom  2.19810000e+00 1.00427000e+00 2.05428000e+01	Si
atom  2.81363000e-01 1.33712000e+00 2.30243000e+01	Si
atom  6.60366000e-01 1.40328000e+00 2.13388000e+01	N
atom  3.35791000e+00 2.26108000e+00 2.02264000e+01	N
atom  2.98569000e+00 6.87163000e-01 2.38979000e+01	Si
atom  5.42209000e+00 1.63627000e+00 2.20312000e+01	Si
atom  5.81047000e+00 1.19752000e+00 2.03362000e+01	N
atom  8.49465000e+00 1.41676000e+00 2.12859000e+01	N
atom  8.25830000e+00 1.21271000e+00 2.37513000e+01	N
atom  8.21176000e+00 2.56584000e+00 2.26200000e+01	Si
atom  2.79178000e+00 1.85966000e+00 2.52741000e+01	N
atom  2.06842000e-01 1.19108000e+00 2.66967000e+01	N
atom  2.11072000e+00 1.80073000e+00 2.80546000e+01	N
atom  3.52642000e+00 1.90206000e+00 2.90338000e+01	Si
atom  4.47834000e-01 1.31038000e+00 2.85129000e+01	Si
atom  1.59864000e+00 2.16690000e+00 2.64395000e+01	Si
atom  9.00038000e+00 7.04322000e-01 2.94160000e+01	Si
atom  5.40241000e+00 1.33387000e+00 2.66727000e+01	Si
atom  7.64308000e+00 1.84568000e+00 2.93360000e+01	N
atom  7.22122000e+00 1.02935000e+00 2.64665000e+01	N
atom  8.34806000e+00 1.91443000e+00 2.53689000e+01	Si
atom  5.06258000e+00 1.90508000e+00 2.82590000e+01	N
atom  5.30039000e+00 2.63993000e+00 2.54982000e+01	N
atom  1.78513000e+00 1.77501000e+00 3.27008000e+01	N
atom  2.96973000e+00 1.70131000e+00 3.40191000e+01	Si
atom  3.54340000e+00 6.74099000e-01 3.02672000e+01	N
atom  2.58215000e+00 5.44598000e-01 3.17871000e+01	Si
atom  3.81243000e+00 4.95173000e-01 3.30729000e+01	N
atom  5.81570000e+00 2.40228000e+00 3.94325000e+01	N
atom  7.55138000e+00 1.83284000e+00 3.10695000e+01	Si
atom  8.52084000e+00 1.74583000e+00 3.41555000e+01	Si
atom  5.86921000e+00 1.44705000e+00 3.15319000e+01	N
atom  5.52175000e+00 1.21466000e+00 3.31930000e+01	Si
atom  6.85828000e+00 2.11477000e+00 3.39942000e+01	N
atom  8.89159000e+00 7.57920000e-01 3.11732000e+01	N
atom  1.32315000e+00 2.28910000e+00 3.66772000e+01	Si
atom  4.23103000e+00 1.30452000e+00 3.64525000e+01	Si
atom  4.09791000e+00 2.13929000e+00 3.91914000e+01	Si
atom  4.88202000e-02 1.90188000e+00 3.55059000e+01	N
atom  2.65585000e+00 1.64086000e+00 3.57015000e+01	N
atom  8.33537000e-01 1.66803000e+00 3.81807000e+01	N
atom  3.80594000e+00 8.52784000e-01 3.80675000e+01	N
atom  6.71591000e+00 2.08122000e+00 3.79444000e+01	Si
atom  8.74926000e+00 1.81435000e+00 3.58619000e+01	N
atom  1.63321000e+00 4.16822000e+00 1.45859000e+00	Si
atom  -1.89976000e-02 4.19699000e+00 1.90059000e+00	N
atom  2.37689000e+00 3.01475000e+00 2.52235000e+00	N
atom  5.03516000e+00 3.27187000e+00 5.30350000e+00	N
atom  7.59858000e+00 4.36416000e+00 4.53336000e-01	N
atom  5.04003000e+00 3.61494000e+00 1.99394000e+00	N
atom  7.18212000e+00 4.44603000e+00 3.56754000e+00	N
atom  6.41841000e+00 3.23988000e+00 9.46831000e-01	Si
atom  5.46641000e+00 4.10454000e+00 3.78232000e+00	Si
atom  8.09137000e+00 2.91291000e+00 3.28759000e+00	Si
atom  3.13798000e+00 3.14405000e+00 8.64398000e+00	Si
atom  1.79278000e+00 3.37746000e+00 7.53786000e+00	N
atom  9.43292000e-01 4.42789000e+00 8.70532000e+00	Si
atom  1.03858000e+00 3.05016000e+00 5.99762000e+00	Si
atom  4.88579000e-01 4.55918000e+00 5.31353000e+00	N
atom  5.83455000e+00 3.22106000e+00 6.88743000e+00	Si
atom  4.74025000e+00 3.64701000e+00 8.12578000e+00	N
atom  8.30976000e+00 4.77918000e+00 9.45072000e+00	N
atom  7.43905000e+00 3.92807000e+00 6.85703000e+00	N
atom  9.72042000e+00 3.33102000e+00 2.89991000e+00	N
atom  1.79598000e+00 3.81981000e+00 1.14811000e+01	Si
atom  3.23247000e+00 3.15991000e+00 1.21309000e+01	N
atom  -1.76144000e-01 3.75291000e+00 1.44700000e+01	N
atom  2.52346000e-01 2.78119000e+00 1.15653000e+01	N
atom  4.81841000e+00 3.93266000e+00 1.16624000e+01	Si
atom  6.37666000e+00 3.41909000e+00 1.43975000e+01	Si
atom  5.32420000e+00 4.30018000e+00 1.33152000e+01	N
atom  8.61321000e+00 2.97199000e+00 1.16942000e+01	N
atom  7.69527000e+00 4.47091000e+00 1.45067000e+01	N
atom  8.72084000e+00 3.19515000e+00 9.97086000e+00	Si
atom  1.40813000e+00 3.32838000e+00 1.69225000e+01	N
atom  2.30058000e+00 4.72343000e+00 1.74352000e+01	Si
atom  3.66088000e-02 2.89885000e+00 1.91624000e+01	N
atom  2.55347000e+00 4.83382000e+00 1.92056000e+01	N
atom  -2.45599000e-01 3.31447000e+00 1.61516000e+01	Si
atom  3.80404000e+00 4.92445000e+00 1.66120000e+01	N
atom  5.13832000e+00 3.35671000e+00 1.87621000e+01	N
atom  5.50590000e+00 2.92585000e+00 1.58310000e+01	N
atom  6.82473000e+00 4.01755000e+00 1.88806000e+01	Si
atom  5.20443000e+00 4.02862000e+00 1.70826000e+01	Si
atom  6.56356000e+00 4.90865000e+00 1.74599000e+01	N
atom  2.17504000e+00 4.11568000e+00 9.82870000e+00	N
atom  5.56104000e+00 5.07866000e+00 1.05558000e+01	N
atom  3.17262000e+00 4.30640000e+00 2.39831000e+01	N
atom  1.49224000e+00 4.17034000e+00 2.44471000e+01	Si
atom  4.76794000e-01 3.06320000e+00 2.36000000e+01	N
atom  3.86280000e+00 3.90403000e+00 1.99744000e+01	Si
atom  3.92499000e+00 2.85657000e+00 2.44631000e+01	Si
atom  4.66434000e+00 4.54346000e+00 2.13683000e+01	N
atom  6.39241000e+00 4.61877000e+00 2.16171000e+01	Si
atom  9.21014000e+00 3.96614000e+00 2.26846000e+01	N
atom  6.56198000e+00 2.90617000e+00 2.22264000e+01	N
atom  1.47031000e+00 3.87668000e+00 2.62112000e+01	N
atom  9.65465000e-02 2.92906000e+00 2.95637000e+01	N
atom  7.93745000e+00 3.58532000e+00 2.51664000e+01	N
atom  6.43899000e+00 2.91331000e+00 2.87708000e+01	Si
atom  6.71945000e+00 3.99109000e+00 2.74980000e+01	N
atom  6.38083000e+00 3.94768000e+00 2.57330000e+01	Si
atom  9.02069000e+00 4.92423000e+00 2.53900000e+01	Si
atom  7.25806000e+00 5.03668000e+00 2.01499000e+01	N
atom  3.76394000e+00 5.03137000e+00 2.71926000e+01	N
atom  2.01997000e+00 3.86879000e+00 3.41605000e+01	N
atom  4.22373000e+00 4.45688000e+00 3.06934000e+01	Si
atom  9.29168000e-01 3.23216000e+00 3.28668000e+01	Si
atom  1.36264000e+00 4.46604000e+00 3.16434000e+01	N
atom  3.66199000e+00 4.44738000e+00 3.39068000e+01	Si
atom  1.45694000e+00 3.89165000e+00 3.00145000e+01	Si
atom  4.23749000e+00 4.44976000e+00 3.23449000e+01	N
atom  3.14206000e+00 3.31173000e+00 2.99335000e+01	N
atom  8.97762000e+00 4.10680000e+00 3.25147000e+01	Si
atom  7.71697000e+00 3.45690000e+00 3.16659000e+01	N
atom  7.06470000e+00 4.71240000e+00 3.07263000e+01	Si
atom  5.75948000e+00 3.95526000e+00 2.99603000e+01	N
atom  7.42527000e+00 4.28200000e+00 3.54707000e+01	N
atom  1.29969000e+00 4.77178000e+00 3.54579000e+01	Si
atom  1.48460000e+00 3.96374000e+00 3.70169000e+01	N
atom  3.70687000e+00 3.53451000e+00 3.82997000e+01	N
atom  2.30369000e+00 4.43313000e+00 3.83974000e+01	Si
atom  8.90237000e-02 2.83631000e+00 3.93722000e+01	Si
atom  8.68974000e+00 3.44732000e+00 3.63914000e+01	Si
atom  5.52811000e+00 2.58946000e+00 3.66557000e+01	N
atom  4.79381000e+00 4.16523000e+00 3.71070000e+01	Si
atom  8.11047000e+00 3.17178000e+00 3.80075000e+01	N
atom  8.93609000e+00 4.03575000e+00 3.93109000e+01	Si
atom  4.69039000e+00 4.80358000e+00 3.53513000e+01	N
atom  5.96971000e+00 3.31968000e+00 3.50207000e+01	Si
atom  4.49244000e+00 2.64245000e+00 3.41331000e+01	N
atom  1.40119000e+00 3.91634000e+00 3.97064000e+01	N
atom  9.62843000e+00 2.94604000e+00 3.36089000e+01	N
atom  -5.31266000e-01 4.65523000e+00 3.54720000e+01	N
atom  1.81990000e+00 6.69899000e+00 4.80216000e-01	Si
atom  3.40562000e-02 6.68242000e+00 6.47890000e-01	N
atom  2.58369000e+00 5.52161000e+00 1.59057000e+00	N
atom  4.30425000e+00 5.22192000e+00 1.85519000e+00	Si
atom  4.61230000e+00 5.59548000e+00 3.48575000e+00	N
atom  7.90662000e+00 6.02935000e+00 3.51903000e+00	Si
atom  8.04851000e+00 6.59061000e+00 1.83008000e+00	N
atom  5.25353000e+00 5.91297000e+00 5.92247000e-01	N
atom  6.98205000e+00 6.02626000e+00 5.49205000e-01	Si
atom  5.13844000e+00 7.07038000e+00 4.27640000e+00	Si
atom  8.26833000e+00 6.69065000e+00 6.64560000e+00	N
atom  -3.47905000e-01 7.10343000e+00 5.86412000e+00	N
atom  1.01360000e+00 6.00551000e+00 8.04315000e+00	N
atom  3.71554000e+00 6.21252000e+00 8.29319000e+00	N
atom  9.11053000e-01 6.05532000e+00 6.25867000e+00	Si
atom  2.42346000e+00 6.96829000e+00 5.89963000e+00	N
atom  2.21222000e+00 6.92341000e+00 8.89676000e+00	Si
atom  3.82996000e+00 7.14968000e+00 6.80165000e+00	Si
atom  8.13763000e+00 5.21218000e+00 7.69374000e+00	Si
atom  6.64668000e+00 7.06853000e+00 6.91450000e+00	Si
atom  4.96546000e+00 5.20006000e+00 8.73885000e+00	Si
atom  6.50864000e+00 5.96543000e+00 8.32948000e+00	N
atom  5.27964000e+00 6.64298000e+00 5.92512000e+00	N
atom  9.40117000e+00 5.78998000e+00 4.38857000e+00	N
atom  6.75508000e+00 7.38964000e+00 3.79745000e+00	N
atom  2.69270000e+00 6.53432000e+00 1.22209000e+01	Si
atom  4.27176000e+00 6.90878000e+00 1.30282000e+01	N
atom  1.58406000e+00 5.24081000e+00 1.24998000e+01	N
atom  2.46809000e-01 5.18027000e+00 1.36193000e+01	Si
atom  2.43565000e+00 7.08327000e+00 1.05747000e+01	N
atom  4.68433000e-01 6.45292000e+00 1.47595000e+01	N
atom  5.58787000e+00 5.99786000e+00 1.36290000e+01	Si
atom  8.29545000e+00 6.07246000e+00 1.42165000e+01	Si
atom  7.04031000e+00 6.71196000e+00 1.31708000e+01	N
atom  7.01981000e+00 5.91367000e+00 1.00378000e+01	Si
atom  7.80755000e+00 7.35403000e+00 1.05640000e+01	N
atom  9.39798000e+00 5.35836000e+00 1.82648000e+01	N
atom  3.94897000e+00 7.28102000e+00 1.78718000e+01	N
atom  4.17609000e+00 6.61884000e+00 1.62512000e+01	Si
atom  1.48686000e+00 6.27219000e+00 1.73480000e+01	N
atom  -5.28927000e-02 6.29380000e+00 1.64711000e+01	Si
atom  5.67811000e+00 6.36166000e+00 1.54199000e+01	N
atom  8.62463000e+00 6.10118000e+00 1.96913000e+01	Si
atom  8.46333000e+00 6.61874000e+00 1.58673000e+01	N
atom  6.98923000e+00 6.31492000e+00 1.65718000e+01	Si
atom  2.25591000e+00 5.68959000e+00 2.18275000e+01	N
atom  1.16592000e+00 6.53272000e+00 2.28636000e+01	Si
atom  6.49457000e-01 5.72561000e+00 2.42260000e+01	N
atom  1.66032000e+00 5.90745000e+00 2.01675000e+01	Si
atom  3.67836000e+00 5.25054000e+00 2.26651000e+01	Si
atom  4.43887000e+00 6.76087000e+00 2.32100000e+01	N
atom  8.20573000e+00 4.98415000e+00 2.94948000e+01	N
atom  6.95986000e+00 5.68427000e+00 2.28533000e+01	N
atom  5.97168000e+00 6.59397000e+00 2.38784000e+01	Si
atom  8.68702000e+00 5.56742000e+00 2.27925000e+01	Si
atom  9.37178000e+00 6.21919000e+00 2.42328000e+01	N
atom  2.36265000e+00 6.62715000e+00 2.97683000e+01	Si
atom  2.39889000e-01 6.74751000e+00 2.55408000e+01	Si
atom  1.66429000e+00 6.68368000e+00 2.65475000e+01	N
atom  1.61609000e+00 5.16548000e+00 2.89313000e+01	N
atom  2.07518000e+00 5.11896000e+00 2.71833000e+01	Si
atom  5.83281000e+00 5.63370000e+00 2.53551000e+01	N
atom  7.48423000e+00 5.51391000e+00 2.80130000e+01	Si
atom  8.74198000e+00 5.86097000e+00 2.68571000e+01	N
atom  5.08665000e+00 6.14514000e+00 2.68856000e+01	Si
atom  6.12397000e+00 6.57507000e+00 2.82067000e+01	N
atom  9.41802000e+00 6.00133000e+00 2.12347000e+01	N
atom  -2.37946000e-01 7.26279000e+00 2.21928000e+01	N
atom  -8.96516000e-04 5.52816000e+00 1.99455000e+01	N
atom  1.74843000e+00 5.94921000e+00 3.24846000e+01	Si
atom  3.79581000e-01 6.27248000e+00 3.35668000e+01	N
atom  2.98603000e+00 6.29241000e+00 3.36071000e+01	N
atom  1.49404000e+00 7.08065000e+00 3.11810000e+01	N
atom  3.95293000e+00 6.02684000e+00 3.01003000e+01	N
atom  5.17584000e+00 5.71993000e+00 3.76401000e+01	N
atom  6.61039000e+00 6.33477000e+00 3.11661000e+01	N
atom  8.27044000e+00 5.53818000e+00 3.31669000e+01	N
atom  7.82926000e+00 6.98789000e+00 3.21911000e+01	Si
atom  5.47770000e+00 6.80735000e+00 2.99061000e+01	Si
atom  7.39248000e+00 7.13212000e+00 3.91701000e+01	N
atom  -6.98974000e-03 6.32278000e+00 3.79047000e+01	N
atom  1.58623000e+00 6.85914000e+00 3.75831000e+01	Si
atom  1.82935000e+00 6.29559000e+00 3.59838000e+01	N
atom  2.62083000e+00 6.15637000e+00 3.88056000e+01	N
atom  4.39252000e+00 6.42093000e+00 3.89953000e+01	Si
atom  5.26875000e+00 6.31530000e+00 3.59493000e+01	Si
atom  8.00536000e+00 5.83526000e+00 3.48473000e+01	Si
atom  9.02902000e+00 7.03595000e+00 3.85071000e+01	Si
atom  6.70471000e+00 6.93632000e+00 3.51444000e+01	N
atom  9.41483000e+00 6.76453000e+00 3.53269000e+01	N
atom  9.62512000e+00 5.44047000e+00 3.84891000e+01	N
atom  2.26365000e+00 8.28848000e+00 8.64209000e-01	N
atom  1.28422000e+00 8.09226000e+00 3.76472000e+00	N
atom  1.64302000e+00 8.97043000e+00 2.33327000e+00	Si
atom  4.09541000e+00 8.42655000e+00 4.15528000e+00	N
atom  -3.23016000e-01 7.73661000e+00 4.22870000e+00	Si
atom  9.17314000e+00 7.81910000e+00 1.45258000e+00	Si
atom  7.08752000e+00 9.00318000e+00 3.14626000e+00	Si
atom  8.46438000e+00 9.26622000e+00 2.00770000e+00	N
atom  7.36408000e-02 9.58265000e+00 1.93926000e+00	N
atom  2.50163000e+00 8.45579000e+00 4.99156000e+00	Si
atom  4.40855000e-01 9.39792000e+00 8.92022000e+00	Si
atom  3.97553000e+00 8.84439000e+00 7.07139000e+00	N
atom  1.79843000e+00 8.50188000e+00 8.39502000e+00	N
atom  6.50695000e+00 8.75701000e+00 7.16209000e+00	N
atom  2.04273000e+00 8.12088000e+00 1.28516000e+01	N
atom  3.52316000e+00 8.37606000e+00 1.37538000e+01	Si
atom  6.23921000e-01 7.94897000e+00 1.38162000e+01	Si
atom  2.13871000e+00 8.78304000e+00 1.11877000e+01	Si
atom  6.08673000e-01 9.33981000e+00 1.06725000e+01	N
atom  3.28679000e-01 9.28145000e+00 1.47774000e+01	N
atom  7.28058000e+00 8.03945000e+00 1.21059000e+01	Si
atom  8.56941000e+00 9.02248000e+00 1.26856000e+01	N
atom  6.23703000e+00 9.31408000e+00 1.18219000e+01	N
atom  9.38858000e+00 7.91822000e+00 1.01648000e+01	Si
atom  3.47697000e+00 8.01015000e+00 1.54015000e+01	N
atom  1.95202000e+00 9.03394000e+00 1.74178000e+01	N
atom  3.33322000e+00 9.39381000e+00 1.65085000e+01	Si
atom  2.25885000e+00 7.53796000e+00 1.82321000e+01	Si
atom  4.83795000e+00 9.67140000e+00 1.73756000e+01	N
atom  6.73945000e+00 7.59664000e+00 1.76191000e+01	N
atom  8.93011000e+00 7.87266000e+00 1.94418000e+01	N
atom  7.59169000e+00 8.66293000e+00 1.87035000e+01	Si
atom  5.26371000e+00 8.33524000e+00 1.83125000e+01	Si
atom  6.05716000e+00 8.67685000e+00 1.97890000e+01	N
atom  3.51350000e+00 8.24158000e+00 2.32351000e+01	Si
atom  3.70855000e+00 8.90055000e+00 2.16015000e+01	N
atom  2.11367000e+00 9.11617000e+00 2.06758000e+01	Si
atom  1.80539000e+00 8.00254000e+00 2.34695000e+01	N
atom  2.12086000e-01 8.74861000e+00 2.30388000e+01	Si
atom  4.26296000e+00 9.33625000e+00 2.42574000e+01	N
atom  8.84457000e+00 7.98351000e+00 2.83985000e+01	N
atom  1.74441000e+00 7.65372000e+00 1.98345000e+01	N
atom  5.95938000e+00 9.51286000e+00 2.40851000e+01	Si
atom  8.98138000e+00 8.95196000e+00 2.31995000e+01	N
atom  8.63695000e+00 7.87988000e+00 2.45624000e+01	Si
atom  6.85384000e+00 8.01349000e+00 2.44398000e+01	N
atom  5.23687000e+00 9.62217000e+00 2.10611000e+01	Si
atom  2.02073000e+00 9.53978000e+00 2.63794000e+01	N
atom  2.66734000e+00 8.02345000e+00 2.69698000e+01	Si
atom  2.37762000e+00 8.01553000e+00 2.87115000e+01	N
atom  4.41588000e+00 7.69591000e+00 2.68836000e+01	N
atom  1.97124000e+00 9.51125000e+00 2.95315000e+01	Si
atom  9.16106000e+00 8.72420000e+00 2.59660000e+01	N
atom  5.49828000e+00 8.40837000e+00 2.79775000e+01	Si
atom  5.17783000e+00 8.45009000e+00 2.96718000e+01	N
atom  6.54323000e+00 9.57427000e+00 2.72387000e+01	N
atom  8.24185000e+00 9.28171000e+00 2.73275000e+01	Si
atom  3.05823000e-01 8.24421000e+00 3.15376000e+01	Si
atom  8.94200000e-01 9.36550000e+00 3.26474000e+01	N
atom  3.67694000e-01 9.31318000e+00 3.00820000e+01	N
atom  7.41333000e+00 8.42527000e+00 3.29595000e+01	N
atom  9.22071000e+00 8.53443000e+00 2.99773000e+01	Si
atom  6.99575000e+00 8.59154000e+00 3.45623000e+01	Si
atom  8.46188000e+00 9.34316000e+00 3.52410000e+01	N
atom  5.00157000e+00 9.10113000e+00 3.62115000e+01	Si
atom  9.25896000e+00 7.41747000e+00 3.13214000e+01	N
atom  2.13520000e+00 8.52040000e+00 3.80428000e+01	N
atom  1.85217000e+00 8.84190000e+00 3.52689000e+01	N
atom  4.17073000e+00 7.68698000e+00 3.58125000e+01	N
atom  3.19506000e+00 8.92632000e+00 3.94020000e+01	Si
atom  2.77025000e+00 7.36028000e+00 3.49223000e+01	Si
atom  9.25356000e+00 8.61470000e+00 3.75396000e+01	N
atom  6.43973000e+00 9.09650000e+00 3.72012000e+01	N
atom  6.37981000e+00 8.49468000e+00 3.88485000e+01	Si
atom  4.69738000e+00 8.09418000e+00 3.91334000e+01	N
atom  2.59700000e+00 1.11580000e+01 1.23048000e+00	Si
atom  2.68629000e+00 1.03091000e+01 2.75246000e+00	N
atom  6.23870000e-01 1.14557000e+01 4.03949000e+00	N
atom  3.80417000e+00 1.03637000e+01 3.24914000e-01	N
atom  2.36885000e+00 1.12645000e+01 4.25755000e+00	Si
atom  4.19583000e+00 1.12101000e+01 4.45470000e+00	N
atom  -1.57619000e-01 1.01982000e+01 3.05586000e-01	Si
atom  1.30399000e+00 1.10196000e+01 3.94601000e-02	N
atom  4.30845000e+00 9.87240000e+00 3.37461000e+00	Si
atom  5.13526000e+00 1.00151000e+01 7.54689000e+00	Si
atom  5.40365000e+00 1.05764000e+01 8.69667000e-01	Si
atom  8.23800000e+00 1.05154000e+01 8.36629000e-01	Si
atom  5.72947000e+00 9.92146000e+00 2.37547000e+00	N
atom  9.35798000e+00 1.00450000e+01 4.96928000e+00	Si
atom  6.76562000e+00 9.87507000e+00 4.31251000e-03	N
atom  7.33834000e+00 9.93526000e+00 6.29806000e+00	Si
atom  3.69040000e+00 1.11095000e+01 7.84889000e+00	N
atom  1.14046000e+00 1.08164000e+01 8.27375000e+00	N
atom  2.16806000e+00 1.00577000e+01 5.64744000e+00	N
atom  2.51577000e+00 9.89368000e+00 7.40645000e+00	Si
atom  4.06793000e+00 1.13741000e+01 9.63196000e+00	Si
atom  8.96419000e+00 1.02492000e+01 6.65986000e+00	N
atom  5.67964000e+00 1.05256000e+01 9.09111000e+00	N
atom  5.67746000e+00 1.19172000e+01 4.99913000e+00	Si
atom  6.02413000e+00 1.10271000e+01 6.43571000e+00	N
atom  8.05350000e+00 1.20904000e+01 1.73364000e+00	N
atom  6.50483000e+00 1.18701000e+01 9.84651000e+00	Si
atom  7.70674000e+00 9.68233000e+00 4.61981000e+00	N
atom  4.16404000e+00 9.87445000e+00 1.32947000e+01	N
atom  3.40691000e+00 9.90112000e+00 1.06591000e+01	N
atom  -3.50185000e-01 1.07663000e+01 1.42890000e+01	Si
atom  4.53613000e+00 1.11345000e+01 1.45221000e+01	Si
atom  4.74906000e+00 1.01443000e+01 1.16874000e+01	Si
atom  7.60799000e+00 1.03989000e+01 1.21122000e+01	Si
atom  7.91136000e+00 1.11509000e+01 1.05469000e+01	N
atom  5.19623000e+00 1.18432000e+01 1.10303000e+01	N
atom  7.67295000e+00 1.17506000e+01 1.31956000e+01	N
atom  1.07719000e+00 1.01881000e+01 1.83214000e+01	Si
atom  3.17572000e+00 1.08112000e+01 1.55977000e+01	N
atom  1.27858000e+00 1.16872000e+01 1.74364000e+01	N
atom  2.25267000e+00 1.05030000e+01 1.96281000e+01	N
atom  1.89948000e+00 1.18714000e+01 1.59110000e+01	Si
atom  6.04658000e+00 1.10081000e+01 1.54352000e+01	N
atom  9.14470000e+00 1.09479000e+01 1.73181000e+01	Si
atom  6.19738000e+00 1.06794000e+01 1.71139000e+01	Si
atom  7.74345000e+00 1.01271000e+01 1.78952000e+01	N
atom  8.95228000e+00 1.12799000e+01 1.56047000e+01	N
atom  7.46522000e+00 1.18901000e+01 1.49489000e+01	Si
atom  1.79089000e+00 1.09799000e+01 2.43371000e+01	N
atom  3.35204000e+00 1.18012000e+01 2.01270000e+01	Si
atom  -4.80822000e-01 1.09299000e+01 2.18937000e+01	Si
atom  8.87802000e+00 1.08227000e+01 2.76485000e+01	N
atom  8.10579000e+00 1.00803000e+01 2.22995000e+01	Si
atom  4.95637000e+00 1.11517000e+01 2.01885000e+01	N
atom  8.13373000e+00 1.17567000e+01 2.29444000e+01	N
atom  9.13659000e+00 1.02741000e+01 2.09643000e+01	N
atom  5.99222000e+00 1.11183000e+01 2.65089000e+01	Si
atom  6.39223000e+00 9.69688000e+00 2.23574000e+01	N
atom  1.07007000e+00 1.10581000e+01 2.58892000e+01	Si
atom  2.29375000e+00 1.11476000e+01 2.89431000e+01	N
atom  4.20335000e+00 1.10981000e+01 2.64503000e+01	N
atom  3.24181000e+00 1.02871000e+01 2.52263000e+01	Si
atom  3.10993000e+00 1.18544000e+01 2.75675000e+01	Si
atom  6.41839000e+00 1.10109000e+01 2.48262000e+01	N
atom  5.30537000e+00 1.11805000e+01 2.93481000e+01	N
atom  -3.81872000e-01 1.16324000e+01 2.89605000e+01	N
atom  8.24078000e-01 9.76045000e+00 2.16660000e+01	N
atom  2.04659000e+00 1.06175000e+01 3.20244000e+01	Si
atom  3.36492000e+00 1.12197000e+01 3.30788000e+01	N
atom  1.03871000e+00 1.14486000e+01 3.43779000e+01	N
atom  3.06403000e+00 9.75557000e+00 3.08730000e+01	N
atom  5.61582000e+00 9.65175000e+00 3.46006000e+01	N
atom  6.90032000e-01 9.73470000e+00 3.42765000e+01	Si
atom  4.74454000e+00 9.97020000e+00 3.03720000e+01	Si
atom  8.28291000e+00 1.09359000e+01 3.28135000e+01	N
atom  5.03955000e+00 1.07568000e+01 3.33029000e+01	Si
atom  5.64991000e+00 1.01798000e+01 3.18542000e+01	N
atom  9.37317000e+00 1.02093000e+01 3.40275000e+01	Si
atom  3.87924000e+00 1.02485000e+01 3.69003000e+01	N
atom  1.18321000e+00 1.09784000e+01 3.72121000e+01	N
atom  9.56530000e+00 1.08031000e+01 3.96872000e+01	N
atom  8.30119000e+00 1.13667000e+01 3.73422000e+01	N
atom  2.19684000e+00 9.65493000e+00 3.67813000e+01	Si
atom  8.11103000e+00 9.82289000e+00 3.04856000e+01	N
atom  8.02948000e+00 9.69226000e+00 3.69406000e+01	Si
atom  -2.85752000e-01 1.20830000e+01 3.73936000e+01	Si
atom  1.80181000e+00 1.18970000e+01 3.85649000e+01	Si
atom  7.27111000e+00 9.87595000e+00 3.19780000e+01	Si
atom  2.36716000e+00 1.31870000e+01 3.87446000e+00	N
atom  2.95232000e+00 1.28842000e+01 1.17963000e+00	N
atom  6.02577000e-01 1.32415000e+01 4.04008000e+00	Si
atom  2.83144000e+00 1.40076000e+01 2.48819000e+00	Si
atom  -2.34729000e-01 1.38064000e+01 2.67958000e+00	N
atom  7.53765000e+00 1.31869000e+01 9.12509000e+00	N
atom  8.94680000e+00 1.43328000e+01 3.21823000e+00	N
atom  5.55246000e+00 1.23405000e+01 5.82056000e-01	N
atom  6.97253000e+00 1.32017000e+01 1.02897000e+00	Si
atom  8.49337000e+00 1.26383000e+01 3.41755000e+00	Si
atom  7.07311000e+00 1.28108000e+01 4.42803000e+00	N
atom  3.50597000e+00 1.40564000e+01 4.90017000e+00	Si
atom  4.92489000e-01 1.41987000e+01 5.42240000e+00	N
atom  1.04511000e+00 1.22548000e+01 9.25899000e+00	Si
atom  3.24863000e-01 1.33524000e+01 8.13913000e+00	N
atom  2.79662000e+00 1.33679000e+01 6.47177000e+00	N
atom  4.25337000e+00 1.26161000e+01 7.10774000e+00	Si
atom  1.34508000e+00 1.41080000e+01 6.94200000e+00	Si
atom  6.42000000e+00 1.43476000e+01 8.44628000e+00	Si
atom  5.05177000e+00 1.34336000e+01 5.73707000e+00	N
atom  5.09352000e+00 1.32353000e+01 8.53235000e+00	N
atom  6.52887000e+00 1.42779000e+01 5.32536000e+00	Si
atom  8.97149000e+00 1.23378000e+01 9.81502000e+00	Si
atom  6.66793000e-01 1.36504000e+01 1.38972000e+01	Si
atom  3.35446000e+00 1.39564000e+01 1.40707000e+01	Si
atom  2.09557000e+00 1.36360000e+01 1.29136000e+01	N
atom  2.68878000e+00 1.38615000e+01 1.13074000e+01	Si
atom  -1.22644000e-01 1.23588000e+01 1.05107000e+01	N
atom  2.70599000e+00 1.25521000e+01 1.00083000e+01	N
atom  6.20771000e-01 1.21081000e+01 1.47794000e+01	N
atom  9.66365000e+00 1.28555000e+01 1.14092000e+01	N
atom  4.58944000e+00 1.26425000e+01 1.37244000e+01	N
atom  5.39137000e+00 1.29877000e+01 1.22300000e+01	Si
atom  8.32131000e+00 1.31998000e+01 1.24391000e+01	Si
atom  6.83839000e+00 1.38500000e+01 1.17979000e+01	N
atom  6.10856000e+00 1.23276000e+01 1.96193000e+01	Si
atom  1.25138000e+00 1.29765000e+01 1.85999000e+01	Si
atom  2.69294000e+00 1.33903000e+01 1.55317000e+01	N
atom  2.98654000e+00 1.32198000e+01 1.91289000e+01	N
atom  9.04102000e+00 1.41676000e+01 1.36815000e+01	N
atom  6.77256000e-01 1.42452000e+01 1.75186000e+01	N
atom  7.25653000e+00 1.34835000e+01 1.55800000e+01	N
atom  8.69481000e+00 1.36673000e+01 1.90637000e+01	Si
atom  6.53960000e+00 1.37934000e+01 1.71444000e+01	Si
atom  6.18686000e+00 1.22387000e+01 1.78842000e+01	N
atom  9.33133000e+00 1.23614000e+01 1.81763000e+01	N
atom  2.85204000e+00 1.34166000e+01 2.39315000e+01	N
atom  4.00337000e+00 1.33540000e+01 2.25696000e+01	Si
atom  3.27115000e-01 1.24526000e+01 2.24155000e+01	N
atom  1.89371000e+00 1.21671000e+01 2.30878000e+01	Si
atom  3.04791000e+00 1.22011000e+01 2.17776000e+01	N
atom  1.10989000e-01 1.35181000e+01 1.98298000e+01	N
atom  8.67619000e+00 1.27966000e+01 2.17545000e+01	Si
atom  7.60357000e+00 1.30005000e+01 2.03672000e+01	N
atom  5.72115000e+00 1.30541000e+01 2.27721000e+01	N
atom  6.82012000e+00 1.24048000e+01 2.39267000e+01	Si
atom  5.30151000e+00 1.38036000e+01 2.01603000e+01	N
atom  6.49809000e+00 1.40938000e+01 2.14548000e+01	Si
atom  8.11322000e+00 1.43829000e+01 2.24955000e+01	N
atom  1.76983000e+00 1.24193000e+01 2.66317000e+01	N
atom  1.02722000e+00 1.39914000e+01 2.71300000e+01	Si
atom  3.99841000e+00 1.32060000e+01 2.80765000e+01	N
atom  1.15197000e+00 1.37166000e+01 2.88830000e+01	N
atom  1.09084000e+00 1.21896000e+01 2.96734000e+01	Si
atom  6.51512000e+00 1.25623000e+01 2.73378000e+01	N
atom  5.75773000e+00 1.42108000e+01 2.95867000e+01	N
atom  9.26681000e+00 1.33806000e+01 2.70779000e+01	N
atom  7.63605000e+00 1.38177000e+01 2.66925000e+01	Si
atom  5.60353000e+00 1.27293000e+01 2.87972000e+01	Si
atom  7.49480000e+00 1.37116000e+01 2.49832000e+01	N
atom  9.54509000e+00 1.21975000e+01 2.83387000e+01	Si
atom  5.03489000e-01 1.33374000e+01 3.23621000e+01	Si
atom  1.81319000e+00 1.38017000e+01 3.33961000e+01	N
atom  2.43634000e+00 1.23634000e+01 3.41217000e+01	Si
atom  8.45133000e+00 1.36412000e+01 3.24479000e+01	N
atom  9.10986000e+00 1.38444000e+01 3.08900000e+01	Si
atom  7.53372000e+00 1.24468000e+01 3.32708000e+01	Si
atom  9.17318000e+00 1.41194000e+01 3.40508000e+01	Si
atom  5.88402000e+00 1.23195000e+01 3.36238000e+01	N
atom  9.06002000e+00 1.23570000e+01 3.00243000e+01	N
atom  3.62886000e+00 1.27074000e+01 3.53277000e+01	N
atom  6.88378000e-01 1.32259000e+01 3.83874000e+01	N
atom  3.48413000e+00 1.24987000e+01 3.83744000e+01	N
atom  4.15405000e+00 1.19627000e+01 3.68540000e+01	Si
atom  5.26769000e+00 1.32215000e+01 3.50001000e+01	Si
atom  5.83199000e+00 1.23681000e+01 3.64455000e+01	N
atom  7.54462000e+00 1.26176000e+01 3.64111000e+01	Si
atom  7.59287000e+00 1.40453000e+01 3.95108000e+01	N
atom  7.78942000e+00 1.42585000e+01 3.69773000e+01	N
atom  8.27412000e+00 1.28263000e+01 3.48378000e+01	N
atom  1.18811000e+00 1.20409000e+01 3.14137000e+01	N
atom  4.21911000e+00 1.31172000e+01 3.97751000e+01	Si
atom  2.07401000e+00 1.56367000e+01 2.42954000e+00	N
atom  1.11516000e+00 1.63073000e+01 1.16734000e+00	Si
atom  3.05183000e+00 1.66718000e+01 3.49827000e+00	Si
atom  4.32023000e+00 1.44770000e+01 3.24980000e+00	N
atom  6.64259000e+00 1.55378000e+01 4.16531000e+00	N
atom  5.57704000e+00 1.56481000e+01 2.85790000e+00	Si
atom  8.25453000e+00 1.58089000e+01 3.75399000e+00	Si
atom  6.41918000e+00 1.48145000e+01 1.62416000e+00	N
atom  6.22055000e+00 1.52467000e+01 -5.05701000e-02	Si
atom  3.15046000e+00 1.58190000e+01 5.02229000e+00	N
atom  1.98783000e+00 1.57070000e+01 7.55865000e+00	N
atom  2.23553000e+00 1.61626000e+01 9.29404000e+00	Si
atom  3.18337000e+00 1.66317000e+01 6.53418000e+00	Si
atom  7.03487000e+00 1.50022000e+01 6.84054000e+00	N
atom  8.08296000e+00 1.63814000e+01 6.56303000e+00	Si
atom  5.91856000e+00 1.56406000e+01 9.57761000e+00	N
atom  9.13010000e+00 1.60567000e+01 5.23104000e+00	N
atom  4.73775000e+00 1.67330000e+01 7.28407000e+00	N
atom  8.92043000e+00 1.67995000e+01 7.98437000e+00	N
atom  1.71772000e+00 1.50649000e+01 1.05307000e+01	N
atom  4.32501000e-01 1.61981000e+01 1.08114000e+01	Si
atom  4.15138000e+00 1.54226000e+01 1.45989000e+01	N
atom  5.88980000e+00 1.52084000e+01 1.12510000e+01	Si
atom  5.43648000e+00 1.65379000e+01 1.40122000e+01	Si
atom  6.12560000e+00 1.64297000e+01 1.24751000e+01	N
atom  6.63375000e+00 1.61872000e+01 1.51236000e+01	N
atom  8.93817000e-01 1.50887000e+01 1.48037000e+01	N
atom  2.67526000e+00 1.57675000e+01 1.69902000e+01	N
atom  5.98590000e-01 1.64113000e+01 1.93156000e+01	N
atom  1.73360000e+00 1.46131000e+01 1.62100000e+01	Si
atom  4.17769000e+00 1.60938000e+01 1.96168000e+01	N
atom  4.27269000e+00 1.57296000e+01 1.63483000e+01	Si
atom  -2.30612000e-01 1.49910000e+01 1.88244000e+01	Si