lattice_vector  3.99138463e+01 0.00000000e+00 0.00000000e+00
lattice_vector  2.44401821e-15 3.99138463e+01 0.00000000e+00
lattice_vector  2.44401821e-15 2.44401821e-15 3.99138463e+01
atom  2.62655000e+00 3.46004000e+00 1.63593000e+00	N
atom  1.50517000e-01 4.72239000e+00 8.30387000e-01	N
atom  2.43938000e+00 2.98084000e+00 1.20398000e-02	Si
atom  8.27159000e+00 3.11005000e+00 1.53160000e+00	N
atom  5.51589000e+00 3.50786000e+00 1.36305000e+00	N
atom  -1.74788000e-01 9.19419000e+00 6.33430000e-01	N
atom  1.73888000e+00 7.28200000e+00 1.41654000e+00	N
atom  5.20574000e-01 6.10737000e+00 1.85368000e+00	Si
atom  2.66838000e+00 9.75723000e+00 2.11110000e+00	N
atom  1.14239000e+00 8.19370000e+00 6.48517000e-02	Si
atom  4.96523000e+00 9.62854000e+00 3.64927000e-01	N
atom  7.17370000e+00 8.11207000e+00 1.43151000e+00	N
atom  9.29924000e+00 6.45716000e+00 1.16568000e+00	N
atom  8.11140000e+00 8.68332000e+00 6.13769000e-02	Si
atom  5.48301000e+00 8.10016000e+00 1.00171000e+00	Si
atom  5.40008000e+00 6.75490000e+00 -9.15153000e-02	N
atom  1.50319000e+00 3.59252000e+00 2.95479000e+00	Si
atom  8.88478000e-02 2.53002000e+00 2.71366000e+00	N
atom  -1.81096000e-01 1.46633000e+00 4.04251000e+00	Si
atom  2.32073000e+00 2.78062000e+00 4.23722000e+00	N
atom  4.16216000e+00 3.13867000e+00 2.47932000e+00	Si
atom  4.30961000e+00 4.45661000e+00 3.64076000e+00	N
atom  1.07874000e+00 5.24255000e+00 3.27429000e+00	N
atom  1.11261000e+00 4.19481000e-01 4.43877000e+00	N
atom  4.30503000e+00 1.47537000e+00 2.85113000e+00	N
atom  6.71377000e+00 2.89050000e+00 3.77376000e+00	N
atom  8.47776000e+00 9.23064000e-01 3.68865000e+00	N
atom  6.98688000e+00 1.27035000e+00 4.39630000e+00	Si
atom  9.28961000e+00 2.05487000e+00 2.56606000e+00	Si
atom  6.89612000e+00 3.84037000e+00 2.28924000e+00	Si
atom  8.48598000e-01 9.52617000e+00 4.16872000e+00	N
atom  2.43996000e+00 7.49306000e+00 4.08427000e+00	N
atom  2.83269000e+00 8.05696000e+00 2.49612000e+00	Si
atom  8.25183000e+00 8.94940000e+00 4.21206000e+00	Si
atom  5.59905000e+00 5.60848000e+00 4.09831000e+00	Si
atom  8.78854000e+00 7.39869000e+00 3.60840000e+00	N
atom  7.93206000e+00 6.73729000e+00 2.24603000e+00	Si
atom  6.82806000e+00 5.53660000e+00 2.82103000e+00	N
atom  4.99301000e+00 8.57225000e+00 3.97441000e+00	Si
atom  4.57524000e+00 7.93226000e+00 2.45955000e+00	N
atom  6.60394000e+00 9.29189000e+00 4.18007000e+00	N
atom  9.55186000e+00 1.01568000e+01 3.90830000e+00	N
atom  3.33185000e+00 3.93665000e+00 4.98702000e+00	Si
atom  2.51975000e+00 1.28030000e+00 5.12265000e+00	Si
atom  4.09855000e+00 2.86156000e+00 6.08292000e+00	N
atom  2.16475000e+00 5.05071000e+00 5.76128000e+00	N
atom  7.32148000e+00 1.95043000e+00 6.01122000e+00	N
atom  7.34554000e+00 3.57380000e+00 5.14552000e+00	Si
atom  6.27457000e+00 4.87206000e+00 5.59583000e+00	N
atom  8.95503000e+00 4.15965000e+00 5.16774000e+00	N
atom  9.20967000e+00 4.64635000e+00 6.79305000e+00	Si
atom  1.54281000e+00 1.00091000e+01 6.50889000e+00	N
atom  4.50468000e-02 7.11035000e+00 5.16733000e+00	N
atom  2.32913000e+00 8.85360000e+00 5.39388000e+00	Si
atom  3.89939000e+00 9.65928000e+00 4.90667000e+00	N
atom  2.93742000e+00 7.82423000e+00 6.71177000e+00	N
atom  1.43560000e+00 6.22324000e+00 4.66320000e+00	Si
atom  5.12095000e+00 7.11052000e+00 4.89770000e+00	N
atom  6.75182000e+00 9.91919000e+00 5.88443000e+00	Si
atom  4.63524000e+00 7.81129000e+00 6.43310000e+00	Si
atom  8.29742000e+00 9.02043000e+00 5.97844000e+00	N
atom  2.87202000e+00 4.27328000e+00 8.24387000e+00	N
atom  1.93617000e-01 3.61536000e+00 7.66923000e+00	N
atom  4.08364000e+00 3.21345000e+00 7.74791000e+00	Si
atom  3.82920000e+00 1.87042000e+00 8.78940000e+00	N
atom  1.46379000e+00 4.71943000e+00 7.28711000e+00	Si
atom  2.74526000e+00 7.18056000e-01 8.17760000e+00	Si
atom  2.92791000e-01 1.96052000e+00 7.05623000e+00	Si
atom  1.87335000e+00 1.33075000e+00 6.83558000e+00	N
atom  5.71870000e+00 3.75493000e+00 8.19359000e+00	N
atom  7.12089000e+00 1.10447000e+00 8.68969000e+00	N
atom  6.20294000e+00 5.16782000e+00 7.31464000e+00	Si
atom  7.90366000e+00 8.89476000e-01 7.19124000e+00	Si
atom  6.84770000e+00 2.68572000e+00 9.20348000e+00	Si
atom  7.97890000e-01 6.32037000e+00 7.62466000e+00	N
atom  1.43957000e+00 8.85505000e+00 8.95404000e+00	N
atom  2.10162000e+00 7.41895000e+00 8.19703000e+00	Si
atom  5.39783000e+00 6.68727000e+00 7.57825000e+00	N
atom  5.93061000e+00 8.18544000e+00 8.45245000e+00	Si
atom  7.82526000e+00 5.10756000e+00 7.73367000e+00	N
atom  5.69489000e+00 9.12169000e+00 6.98259000e+00	N
atom  2.79733000e+00 4.95736000e+00 9.82982000e+00	Si
atom  4.01949000e+00 4.12997000e+00 1.07888000e+01	N
atom  1.60243000e+00 4.45310000e+00 1.10400000e+01	N
atom  4.25963000e+00 2.38350000e+00 1.04327000e+01	Si
atom  3.09854000e+00 1.66433000e+00 1.15141000e+01	N
atom  -3.42367000e-01 1.07225000e+00 1.10978000e+01	N
atom  5.97793000e+00 2.37369000e+00 1.06577000e+01	N
atom  8.35082000e+00 3.36586000e+00 9.90782000e+00	N
atom  8.08941000e+00 5.05401000e+00 9.40392000e+00	Si
atom  5.37392000e+00 5.06862000e+00 1.12004000e+01	Si
atom  7.39629000e+00 2.13800000e-01 1.13722000e+01	N
atom  2.71823000e-01 6.91341000e+00 1.04076000e+01	N
atom  3.75456000e+00 7.64432000e+00 1.05512000e+01	Si
atom  1.06559000e+00 8.41834000e+00 1.05723000e+01	Si
atom  2.86015000e+00 6.61391000e+00 9.54842000e+00	N
atom  5.02526000e-01 5.62719000e+00 1.15286000e+01	Si
atom  2.51459000e+00 8.26428000e+00 1.15924000e+01	N
atom  4.52823000e+00 8.68519000e+00 9.43101000e+00	N
atom  9.15098000e+00 8.64847000e+00 1.09617000e+01	N
atom  9.01837000e+00 7.64588000e+00 9.52105000e+00	Si
atom  7.59065000e+00 9.58952000e+00 1.03353000e+01	Si
atom  7.30925000e+00 8.02505000e+00 9.38474000e+00	N
atom  6.48748000e+00 9.01486000e+00 1.15568000e+01	N
atom  6.70013000e+00 5.62502000e+00 1.02538000e+01	N
atom  6.61414000e+00 7.24727000e+00 1.10100000e+01	Si
atom  1.05308000e+00 2.65344000e+00 1.30843000e+01	N
atom  2.39777000e+00 3.17204000e+00 1.20672000e+01	Si
atom  2.52530000e-01 9.89278000e-01 1.27411000e+01	Si
atom  3.45555000e+00 3.32785000e+00 1.35273000e+01	N
atom  5.98858000e+00 4.53532000e+00 1.26910000e+01	N
atom  8.68882000e+00 2.34487000e+00 1.22581000e+01	N
atom  6.10384000e+00 1.98836000e+00 1.33988000e+01	N
atom  7.04123000e+00 1.82373000e+00 1.18935000e+01	Si
atom  9.27942000e+00 1.42839000e+00 1.37214000e+01	Si
atom  5.12078000e+00 3.38419000e+00 1.37154000e+01	Si
atom  1.02640000e+00 6.38858000e+00 1.29843000e+01	N
atom  2.12752000e+00 7.71442000e+00 1.32296000e+01	Si
atom  -4.77252000e-02 9.25938000e+00 1.16169000e+01	N
atom  5.68438000e-01 1.02286000e+01 1.29449000e+01	Si
atom  5.23378000e+00 8.89531000e+00 1.37578000e+01	N
atom  4.85003000e+00 7.31355000e+00 1.34262000e+01	Si
atom  7.64993000e+00 6.77383000e+00 1.24272000e+01	N
atom  8.85357000e+00 8.01039000e+00 1.25840000e+01	Si
atom  8.66610000e+00 9.47080000e+00 1.36496000e+01	N
atom  4.92047000e+00 6.81498000e+00 1.16320000e+01	N
atom  7.08937000e+00 5.53316000e+00 1.36160000e+01	Si
atom  5.32645000e+00 9.99818000e+00 1.24612000e+01	Si
atom  2.14641000e+00 2.73801000e+00 1.45644000e+01	Si
atom  2.59864000e+00 1.12963000e+00 1.50183000e+01	N
atom  4.00353000e+00 6.22623000e-01 1.60565000e+01	Si
atom  1.54437000e+00 3.27864000e+00 1.60647000e+01	N
atom  -2.36132000e-01 3.69441000e+00 1.61592000e+01	Si
atom  -1.76864000e-01 6.01792000e-01 1.43696000e+01	N
atom  -3.60214000e-01 4.69531000e+00 1.46828000e+01	N
atom  6.57310000e+00 1.06622000e+00 1.47644000e+01	Si
atom  8.20594000e+00 1.63958000e+00 1.51119000e+01	N
atom  5.33448000e+00 4.11440000e+00 1.52871000e+01	N
atom  5.42022000e+00 1.52281000e+00 1.59608000e+01	N
atom  8.28830000e+00 4.86954000e+00 1.46157000e+01	N
atom  9.25004000e+00 5.17579000e+00 1.60227000e+01	Si
atom  2.85383000e-02 6.34935000e+00 1.44304000e+01	Si
atom  1.48078000e+00 9.72765000e+00 1.55523000e+01	Si
atom  1.03909000e+00 7.00455000e+00 1.56571000e+01	N
atom  2.86029000e+00 7.25182000e+00 1.60150000e+01	Si
atom  3.36180000e+00 7.03318000e+00 1.42565000e+01	N
atom  1.48022000e+00 9.13422000e+00 1.39430000e+01	N
atom  8.70640000e+00 9.61768000e+00 1.54497000e+01	Si
atom  5.57097000e+00 1.00817000e+01 1.61958000e+01	N
atom  5.90253000e+00 6.41856000e+00 1.44664000e+01	N
atom  7.66927000e+00 8.43507000e+00 1.61271000e+01	N
atom  5.96281000e+00 8.53994000e+00 1.54502000e+01	Si
atom  4.96392000e+00 5.73563000e+00 1.58876000e+01	Si
atom  2.59117000e+00 4.17688000e+00 1.71024000e+01	Si
atom  4.02838000e+00 3.28443000e+00 1.76818000e+01	N
atom  3.26968000e+00 6.62347000e-01 1.76199000e+01	N
atom  7.11654000e+00 3.17142000e+00 1.74239000e+01	N
atom  8.74689000e+00 1.33451000e+00 1.79278000e+01	N
atom  7.28765000e+00 4.87350000e+00 1.80089000e+01	Si
atom  5.50364000e+00 3.08411000e+00 1.66731000e+01	Si
atom  8.46688000e+00 2.40725000e+00 1.65923000e+01	Si
atom  5.67609000e+00 5.36525000e+00 1.74742000e+01	N
atom  4.12003000e+00 9.91632000e+00 1.71344000e+01	Si
atom  1.39159000e-01 9.39111000e+00 1.66299000e+01	N
atom  2.93176000e-01 7.72840000e+00 1.70476000e+01	Si
atom  1.52778000e+00 7.48785000e+00 1.82730000e+01	N
atom  2.84830000e+00 9.03952000e+00 1.63127000e+01	N
atom  3.24738000e+00 5.60325000e+00 1.63924000e+01	N
atom  8.33685000e+00 5.98293000e+00 1.72343000e+01	N
atom  4.87196000e+00 7.49830000e+00 1.64064000e+01	N
atom  5.12488000e+00 7.15490000e+00 1.80767000e+01	Si
atom  9.14089000e+00 8.65237000e+00 1.84939000e+01	N
atom  8.08637000e+00 7.66994000e+00 1.75944000e+01	Si
atom  4.67194000e+00 9.04058000e+00 1.85903000e+01	N
atom  3.23263000e+00 1.45027000e+00 2.01556000e+01	N
atom  2.52592000e-01 2.84409000e+00 2.02405000e+01	N
atom  1.55201000e-01 4.21501000e+00 1.92279000e+01	Si
atom  4.09714000e+00 1.74217000e+00 1.86721000e+01	Si
atom  1.79733000e+00 4.75111000e+00 1.85999000e+01	N
atom  4.60148000e+00 4.63756000e+00 1.87497000e+01	Si
atom  4.88873000e+00 3.68003000e+00 2.01908000e+01	N
atom  7.56418000e+00 2.62280000e+00 2.03389000e+01	N
atom  7.16492000e+00 5.04576000e+00 1.96902000e+01	N
atom  5.67242000e+00 1.19680000e+00 1.90228000e+01	N
atom  7.14931000e+00 1.95760000e+00 1.87560000e+01	Si
atom  6.55499000e+00 3.93062000e+00 2.08184000e+01	Si
atom  4.06390000e+00 9.28667000e+00 2.01900000e+01	Si
atom  4.01519000e+00 6.26551000e+00 1.91320000e+01	N
atom  2.26929000e+00 6.28457000e+00 1.92704000e+01	Si
atom  9.79201000e-01 1.00448000e+01 2.07940000e+01	N
atom  7.31566000e+00 6.64772000e+00 2.02015000e+01	Si
atom  6.33877000e+00 9.13755000e+00 1.93371000e+01	Si
atom  6.74849000e+00 7.53805000e+00 1.88046000e+01	N
atom  9.00132000e+00 6.87455000e+00 2.04705000e+01	N
atom  5.62255000e+00 9.23752000e+00 2.09701000e+01	N
atom  2.65409000e+00 3.39247000e+00 2.20601000e+01	N
atom  1.14136000e+00 2.50434000e+00 2.18127000e+01	Si
atom  1.68013000e+00 9.19629000e-01 2.22763000e+01	N
atom  3.95641000e+00 2.52876000e+00 2.12007000e+01	Si
atom  -1.20252000e-01 2.98673000e+00 2.29561000e+01	N
atom  5.00911000e+00 1.83643000e+00 2.24248000e+01	N
atom  6.36418000e+00 4.18059000e+00 2.25148000e+01	N
atom  8.69690000e+00 2.10775000e+00 2.26887000e+01	N
atom  8.99529000e+00 4.44453000e+00 2.19994000e+01	N
atom  9.18066000e+00 2.86133000e+00 2.11398000e+01	Si
atom  8.04061000e+00 3.64611000e+00 2.32759000e+01	Si
atom  3.14432000e+00 8.30809000e+00 2.12551000e+01	N
atom  2.05234000e+00 9.53345000e+00 2.20941000e+01	Si
atom  3.80571000e+00 5.82595000e+00 2.27482000e+01	N
atom  2.51241000e+00 6.85174000e+00 2.21106000e+01	Si
atom  1.43981000e+00 8.10378000e+00 2.29436000e+01	N
atom  -2.20498000e-01 6.47201000e+00 2.13303000e+01	Si
atom  1.47711000e+00 6.15185000e+00 2.09169000e+01	N
atom  7.50924000e+00 9.31044000e+00 2.26013000e+01	N
atom  6.12414000e+00 8.31231000e+00 2.24134000e+01	Si
atom  6.30688000e+00 6.79567000e+00 2.16790000e+01	N
atom  5.59871000e+00 5.73617000e+00 2.28010000e+01	Si
atom  2.07859000e+00 1.22439000e+00 2.51802000e+01	N
atom  4.11132000e+00 3.41341000e+00 2.44121000e+01	N
atom  3.69682000e+00 2.04958000e+00 2.54995000e+01	Si
atom  1.52856000e+00 5.05191000e+00 2.39881000e+01	N
atom  -9.51137000e-02 4.59439000e+00 2.36061000e+01	Si
atom  3.04738000e+00 4.40346000e+00 2.34298000e+01	Si
atom  6.92762000e+00 2.74622000e+00 2.46028000e+01	N
atom  8.32724000e+00 4.84483000e+00 2.45437000e+01	N
atom  6.70230000e+00 1.09755000e+00 2.52773000e+01	Si
atom  5.54773000e+00 3.03863000e+00 2.35378000e+01	Si
atom  5.01494000e+00 9.08539000e-01 2.54147000e+01	N
atom  8.75147000e+00 5.74417000e-01 2.33302000e+01	Si
atom  8.02335000e+00 3.61578000e+00 2.57300000e+01	Si
atom  6.46456000e-01 8.68702000e+00 2.43754000e+01	Si
atom  1.38949000e+00 5.84678000e+00 2.55318000e+01	Si
atom  1.26791000e+00 7.54145000e+00 2.55623000e+01	N
atom  5.13655000e+00 7.82331000e+00 2.49686000e+01	Si
atom  7.32751000e+00 6.58352000e+00 2.54701000e+01	Si
atom  4.91036000e+00 8.76911000e+00 2.35730000e+01	N
atom  6.03253000e+00 6.43685000e+00 2.43188000e+01	N
atom  9.03836000e+00 7.19338000e+00 2.54167000e+01	N
atom  6.56775000e+00 8.29121000e+00 2.58203000e+01	N
atom  3.50798000e+00 2.30280000e+00 2.72028000e+01	N
atom  1.23216000e+00 1.20847000e+00 2.67753000e+01	Si
atom  9.43839000e-01 2.88517000e+00 2.70615000e+01	N
atom  2.43146000e+00 3.62993000e+00 2.75415000e+01	Si
atom  2.52697000e+00 5.19572000e+00 2.66654000e+01	N
atom  -2.24280000e-01 5.27152000e+00 2.58924000e+01	N
atom  9.50926000e+00 2.70280000e+00 2.56896000e+01	N
atom  7.74574000e+00 9.93237000e-01 2.65880000e+01	N
atom  7.81393000e+00 3.55875000e+00 2.74859000e+01	N
atom  9.44678000e+00 9.92035000e-01 2.61017000e+01	Si
atom  7.48919000e+00 1.92992000e+00 2.80406000e+01	Si
atom  2.66501000e+00 1.01613000e+01 2.67428000e+01	N
atom  3.84743000e+00 7.60122000e+00 2.60061000e+01	N
atom  3.63658000e+00 6.45937000e+00 2.73099000e+01	Si
atom  2.16467000e+00 8.41771000e+00 2.67686000e+01	Si
atom  6.21292000e-01 9.01363000e+00 2.76927000e+01	N
atom  8.52767000e+00 8.99581000e+00 2.75108000e+01	N
atom  7.08889000e+00 6.09307000e+00 2.71277000e+01	N
atom  6.80011000e+00 8.99026000e+00 2.73418000e+01	Si
atom  2.54151000e+00 3.93294000e+00 2.92424000e+01	N
atom  1.75166000e-01 2.00193000e+00 2.97915000e+01	N
atom  3.71881000e+00 5.07023000e+00 2.98576000e+01	Si
atom  4.02033000e+00 1.61923000e+00 3.00091000e+01	N
atom  4.28091000e+00 1.21118000e+00 2.83549000e+01	Si
atom  1.33548000e+00 3.34603000e+00 3.03425000e+01	Si
atom  8.52424000e-01 4.31041000e-01 2.95265000e+01	Si
atom  5.85132000e+00 2.04182000e+00 2.86049000e+01	N
atom  8.61296000e+00 1.37550000e+00 2.92764000e+01	N
atom  7.95760000e+00 5.03617000e+00 2.82551000e+01	Si
atom  5.50108000e+00 2.48638000e+00 3.02272000e+01	Si
atom  2.53267000e+00 7.85876000e+00 2.99326000e+01	Si
atom  -2.53915000e-01 8.11007000e+00 2.88878000e+01	Si
atom  2.65815000e+00 7.56888000e+00 2.82095000e+01	N
atom  3.56476000e+00 9.32833000e+00 3.03448000e+01	N
atom  8.32452000e-01 7.85208000e+00 3.02876000e+01	N
atom  5.22946000e+00 9.25642000e+00 2.98765000e+01	Si
atom  9.46397000e+00 5.39511000e+00 2.90664000e+01	N
atom  5.79653000e+00 8.30311000e+00 2.85969000e+01	N
atom  4.61721000e+00 5.75767000e+00 2.85182000e+01	N
atom  7.11708000e+00 5.61032000e+00 2.96440000e+01	N
atom  6.11794000e+00 6.58191000e+00 2.85178000e+01	Si
atom  1.98523000e+00 2.68850000e+00 3.17449000e+01	N
atom  3.05711000e+00 1.32950000e+00 3.13590000e+01	Si
atom  2.95897000e-01 4.65021000e+00 3.06323000e+01	N
atom  4.08273000e+00 8.56545000e-01 3.25927000e+01	N
atom  4.87469000e+00 3.97500000e+00 3.08219000e+01	N
atom  6.75048000e+00 1.87261000e+00 3.12160000e+01	N
atom  8.83168000e+00 4.00801000e+00 3.14840000e+01	N
atom  7.81185000e+00 2.79775000e+00 3.22566000e+01	Si
atom  5.14453000e+00 4.32027000e+00 3.24794000e+01	Si
atom  7.65600000e+00 5.34411000e-01 3.04636000e+01	Si
atom  2.03823000e-01 7.95146000e+00 3.19327000e+01	Si
atom  3.45303000e+00 6.57035000e+00 3.06593000e+01	N
atom  1.23431000e+00 9.16084000e+00 3.25048000e+01	N
atom  4.72213000e+00 7.30585000e+00 3.16658000e+01	Si
atom  -8.52109000e-03 6.48536000e+00 3.28800000e+01	N
atom  7.73155000e+00 8.18582000e+00 3.18083000e+01	Si
atom  5.52323000e+00 6.01275000e+00 3.25538000e+01	N
atom  8.32410000e+00 6.55563000e+00 3.18854000e+01	N
atom  9.36365000e+00 8.79664000e+00 3.18426000e+01	N
atom  6.00833000e+00 8.46240000e+00 3.12695000e+01	N
atom  8.53462000e+00 5.47609000e+00 3.05773000e+01	Si
atom  8.80039000e-01 4.25129000e+00 3.37942000e+01	N
atom  2.29928000e+00 3.20452000e+00 3.34402000e+01	Si
atom  3.85282000e+00 3.83742000e+00 3.35418000e+01	N
atom  1.99652000e+00 2.00128000e+00 3.46931000e+01	N
atom  8.54426000e-01 6.27693000e-01 3.47482000e+01	Si
atom  8.95025000e+00 1.99534000e+00 3.33748000e+01	N
atom  6.66757000e+00 3.67969000e+00 3.31258000e+01	N
atom  6.79929000e+00 4.01446000e+00 3.48782000e+01	Si
atom  2.79890000e+00 9.99152000e+00 3.46602000e+01	N
atom  2.08941000e+00 7.22345000e+00 3.43606000e+01	N
atom  8.89746000e-01 5.95429000e+00 3.43874000e+01	Si
atom  2.54347000e+00 8.62110000e+00 3.35411000e+01	Si
atom  4.00083000e+00 8.35978000e+00 3.28287000e+01	N
atom  8.37573000e+00 1.03890000e+01 3.41723000e+01	N
atom  9.49130000e+00 1.01360000e+01 3.28383000e+01	Si
atom  7.20717000e+00 9.23340000e+00 3.48875000e+01	Si
atom  5.57557000e+00 9.34154000e+00 3.29185000e+01	Si
atom  7.08116000e+00 6.38329000e+00 3.31416000e+01	Si
atom  7.53916000e+00 5.63783000e+00 3.44883000e+01	N
atom  6.96452000e+00 8.18102000e+00 3.34249000e+01	N
atom  5.67242000e+00 1.00272000e+01 3.48046000e+01	N
atom  3.52305000e+00 2.81016000e+00 3.66160000e+01	N
atom  2.69745000e+00 1.33001000e+00 3.61661000e+01	Si
atom  1.23724000e+00 3.69715000e-01 3.63726000e+01	N
atom  4.41307000e+00 3.18473000e+00 3.51620000e+01	Si
atom  8.40672000e+00 3.62622000e+00 3.55678000e+01	N
atom  8.40077000e+00 7.99339000e-01 3.58572000e+01	N
atom  6.70410000e+00 9.59346000e-01 3.55534000e+01	Si
atom  5.36786000e+00 4.73078000e+00 3.54273000e+01	N
atom  9.04790000e+00 5.20804000e+00 3.52178000e+01	Si
atom  9.16064000e+00 2.13710000e+00 3.50792000e+01	Si
atom  6.19098000e+00 4.18026000e-01 3.70799000e+01	N
atom  5.98969000e+00 2.42339000e+00 3.52390000e+01	N
atom  3.74069000e+00 1.02613000e+01 3.71717000e+01	N
atom  4.16830000e+00 9.54523000e+00 3.56359000e+01	Si
atom  3.95825000e-01 6.07785000e+00 3.60153000e+01	N
atom  1.77984000e+00 8.21294000e+00 3.70664000e+01	N
atom  3.37870000e+00 5.79915000e+00 3.69075000e+01	N
atom  2.68894000e+00 7.16692000e+00 3.60261000e+01	Si
atom  2.58853000e-01 7.42716000e+00 3.72063000e+01	Si
atom  4.29274000e+00 7.80403000e+00 3.57247000e+01	N
atom  4.96591000e+00 6.18735000e+00 3.62071000e+01	Si
atom  7.93426000e+00 7.24546000e+00 3.71128000e+01	Si
atom  9.28395000e+00 6.40048000e+00 3.64436000e+01	N
atom  7.75112000e+00 8.84783000e+00 3.64737000e+01	N
atom  6.36033000e+00 6.42812000e+00 3.72082000e+01	N
atom  8.30279000e+00 1.01529000e+01 3.74872000e+01	Si
atom  2.21400000e+00 4.34979000e+00 3.88805000e+01	N
atom  3.52543000e+00 4.21025000e+00 3.76903000e+01	Si
atom  6.58381000e-01 5.12912000e+00 3.91117000e+01	Si
atom  3.93161000e+00 2.25954000e+00 3.95712000e+01	N
atom  3.99550000e+00 5.23382000e-01 3.95902000e+01	Si
atom  1.10021000e+00 1.92510000e+00 3.95762000e+01	N
atom  6.87290000e+00 7.14692000e-01 3.86342000e+01	Si
atom  5.08181000e+00 4.41475000e+00 3.85466000e+01	N
atom  6.87962000e+00 2.30549000e+00 3.91953000e+01	N
atom  7.73092000e+00 4.85781000e+00 3.92093000e+01	N
atom  5.44050000e+00 3.09241000e+00 3.95814000e+01	Si
atom  8.27243000e+00 3.34710000e+00 3.96863000e+01	Si
atom  2.13674000e+00 9.77789000e+00 3.77302000e+01	Si
atom  4.10881000e-01 6.85362000e+00 3.89238000e+01	N
atom  2.18138000e+00 9.50957000e+00 3.93766000e+01	N
atom  7.41267000e+00 9.95132000e+00 3.90239000e+01	N
atom  9.10291000e+00 6.01225000e+00 3.93745000e+01	Si
atom  8.18107000e+00 7.37061000e+00 3.88294000e+01	N
atom  6.23699000e+00 5.71423000e+00 3.87085000e+01	Si
atom  5.37336000e-01 1.32435000e+01 1.64325000e+00	Si
atom  3.65360000e+00 1.20747000e+01 8.06324000e-01	N
atom  1.51593000e+00 1.38525000e+01 3.45663000e-01	N
atom  4.96923000e-01 1.14923000e+01 1.79868000e+00	N
atom  3.35209000e+00 1.02308000e+01 5.19270000e-01	Si
atom  8.77204000e+00 1.36464000e+01 1.73835000e+00	N
atom  6.35574000e+00 1.19440000e+01 9.43783000e-01	N
atom  7.85659000e+00 1.27504000e+01 6.31933000e-01	Si
atom  5.01609000e+00 1.25425000e+01 1.83560000e+00	Si
atom  9.25669000e+00 1.17730000e+01 2.06260000e-01	N
atom  5.14326000e+00 1.43020000e+01 1.88650000e+00	N
atom  1.70391000e+00 1.56460000e+01 5.61874000e-01	Si
atom  2.90584000e+00 1.57287000e+01 1.86345000e+00	N
atom  4.16878000e+00 1.88509000e+01 1.61191000e+00	Si
atom  2.10006000e-01 1.59703000e+01 1.37367000e+00	N
atom  2.45441000e+00 1.91118000e+01 1.21438000e+00	N
atom  1.49165000e+00 2.02255000e+01 1.98146000e+00	Si
atom  9.62715000e+00 1.66627000e+01 2.51553000e-01	N
atom  4.67607000e+00 1.55876000e+01 7.89627000e-01	Si
atom  7.48374000e+00 1.82861000e+01 5.20865000e-01	N
atom  8.69174000e+00 1.75529000e+01 1.31807000e+00	Si
atom  4.70136000e+00 1.74639000e+01 7.91786000e-01	N
atom  6.12773000e+00 1.76281000e+01 -1.84420000e-01	Si
atom  1.02888000e+00 1.38757000e+01 3.10588000e+00	N
atom  2.35744000e+00 1.17824000e+01 4.02340000e+00	N
atom  1.49021000e+00 1.07040000e+01 2.97280000e+00	Si
atom  3.52341000e+00 1.46176000e+01 4.26506000e+00	N
atom  2.20600000e+00 1.51699000e+01 3.26419000e+00	Si
atom  1.23487000e+00 1.28938000e+01 4.59772000e+00	Si
atom  5.20434000e+00 1.18901000e+01 3.48621000e+00	N
atom  5.14474000e+00 1.48334000e+01 3.55395000e+00	Si
atom  9.17741000e+00 1.47783000e+01 4.24350000e+00	N
atom  9.31000000e+00 1.51592000e+01 2.57241000e+00	Si
atom  6.47539000e+00 1.41815000e+01 4.52328000e+00	N
atom  1.28074000e+00 1.96462000e+01 3.61778000e+00	N
atom  4.22203000e+00 1.92299000e+01 3.27603000e+00	N
atom  1.08554000e+00 1.63847000e+01 3.98318000e+00	N
atom  -1.93884000e-01 1.90612000e+01 4.20772000e+00	Si
atom  2.89717000e+00 1.94694000e+01 4.34547000e+00	Si
atom  -3.95687000e-01 1.64240000e+01 2.97701000e+00	Si
atom  7.25509000e+00 1.88125000e+01 3.55365000e+00	N
atom  8.16967000e+00 1.64797000e+01 2.54417000e+00	N
atom  7.06632000e+00 1.70560000e+01 3.75448000e+00	Si
atom  8.92115000e+00 1.93455000e+01 3.69960000e+00	Si
atom  5.41063000e+00 1.66021000e+01 3.87912000e+00	N
atom  5.77459000e+00 1.94314000e+01 4.07454000e+00	Si
atom  1.78033000e+00 1.36640000e+01 6.00449000e+00	N
atom  3.52814000e+00 1.41443000e+01 5.95774000e+00	Si
atom  -1.77650000e-01 1.19278000e+01 4.93337000e+00	N
atom  7.12301000e-02 1.04216000e+01 5.59618000e+00	Si
atom  4.53444000e+00 1.25373000e+01 5.83491000e+00	N
atom  3.86637000e+00 1.13635000e+01 4.61703000e+00	Si
atom  5.98319000e+00 1.25772000e+01 4.91835000e+00	Si
atom  7.86729000e+00 1.49946000e+01 5.26495000e+00	Si
atom  7.03066000e+00 1.16422000e+01 5.79764000e+00	N
atom  8.38790000e+00 1.25646000e+01 6.55306000e+00	Si
atom  8.26201000e+00 1.43475000e+01 6.74342000e+00	N
atom  2.96648000e+00 1.80033000e+01 5.21452000e+00	N
atom  3.83193000e-01 1.84279000e+01 5.75415000e+00	N
atom  1.48174000e+00 1.71367000e+01 5.44925000e+00	Si
atom  4.41401000e+00 1.57686000e+01 6.42185000e+00	N
atom  1.28007000e+00 1.60700000e+01 6.78470000e+00	N
atom  4.54314000e+00 1.71298000e+01 5.31188000e+00	Si
atom  7.63720000e+00 1.67415000e+01 5.41896000e+00	N
atom  8.57134000e+00 1.79710000e+01 6.24177000e+00	Si
atom  5.46141000e+00 1.85299000e+01 5.58034000e+00	N
atom  3.66149000e+00 1.39474000e+01 7.79177000e+00	N
atom  1.14879000e+00 1.19738000e+01 8.71295000e+00	N
atom  3.91925000e+00 1.15822000e+01 8.62269000e+00	N
atom  2.69658000e+00 1.28322000e+01 8.94291000e+00	Si
atom  1.26528000e+00 1.48426000e+01 9.01079000e+00	N
atom  9.04278000e-01 1.44272000e+01 7.24551000e+00	Si
atom  1.15506000e+00 1.03257000e+01 8.10718000e+00	Si
atom  4.86523000e+00 1.26123000e+01 7.52499000e+00	Si
atom  8.72904000e+00 1.18557000e+01 8.11087000e+00	N
atom  6.34486000e+00 1.31229000e+01 8.18662000e+00	N
atom  6.71084000e+00 1.44523000e+01 9.24055000e+00	Si
atom  1.68438000e-01 1.90135000e+01 7.33991000e+00	Si
atom  3.10850000e+00 1.70355000e+01 8.63665000e+00	N
atom  2.61400000e-01 1.78164000e+01 8.68058000e+00	N
atom  1.47871000e+00 1.65276000e+01 8.50271000e+00	Si
atom  4.09569000e+00 1.56675000e+01 8.14675000e+00	Si
atom  5.48696000e+00 1.81765000e+01 8.36556000e+00	N
atom  8.07571000e+00 1.54692000e+01 9.16758000e+00	N
atom  8.36556000e+00 2.03029000e+01 8.40153000e+00	Si
atom  9.30547000e+00 1.73765000e+01 7.74024000e+00	N
atom  5.95125000e+00 1.91949000e+01 7.09985000e+00	Si
atom  9.04868000e+00 1.55492000e+01 7.77667000e+00	Si
atom  5.43331000e+00 1.56270000e+01 9.21643000e+00	N
atom  7.75488000e+00 1.93239000e+01 7.05431000e+00	N
atom  2.56111000e+00 1.32185000e+01 1.05965000e+01	N
atom  1.40165000e+00 1.45831000e+01 1.08766000e+01	Si
atom  -1.04353000e-01 1.37113000e+01 1.13903000e+01	N
atom  4.14326000e+00 1.06930000e+01 1.12975000e+01	N
atom  7.27699000e+00 1.33181000e+01 1.05220000e+01	N
atom  8.59746000e+00 1.10419000e+01 1.06240000e+01	N
atom  6.38700000e+00 1.06403000e+01 9.50478000e+00	N
atom  7.58036000e+00 1.19739000e+01 9.44183000e+00	Si
atom  4.68030000e+00 1.03753000e+01 9.66896000e+00	Si
atom  9.65446000e-01 1.63735000e+01 1.10813000e+01	N
atom  2.04998000e+00 1.90092000e+01 1.04090000e+01	N
atom  5.82593000e-01 1.80094000e+01 1.04495000e+01	Si
atom  3.54307000e+00 1.84714000e+01 9.47829000e+00	Si
atom  4.50479000e+00 1.77790000e+01 1.07334000e+01	N
atom  -4.20543000e-01 1.89277000e+01 1.15477000e+01	N
atom  3.81779000e+00 2.01530000e+01 9.22772000e+00	N
atom  9.51185000e+00 1.96719000e+01 9.55320000e+00	N
atom  8.53697000e+00 1.63448000e+01 1.05366000e+01	Si
atom  7.28216000e+00 1.74729000e+01 1.07741000e+01	N
atom  5.86830000e+00 1.72633000e+01 9.78863000e+00	Si
atom  3.81457000e+00 1.27426000e+01 1.30606000e+01	N
atom  1.49337000e+00 1.17071000e+01 1.25855000e+01	N
atom  1.65396000e+00 1.46872000e+01 1.27900000e+01	N
atom  6.29860000e-01 1.32003000e+01 1.28641000e+01	Si
atom  3.13589000e+00 1.43270000e+01 1.35584000e+01	Si
atom  3.02781000e+00 1.19818000e+01 1.17111000e+01	Si
atom  6.37916000e+00 1.40255000e+01 1.30828000e+01	N
atom  6.34401000e+00 1.12436000e+01 1.31228000e+01	N
atom  8.68946000e+00 1.27921000e+01 1.33226000e+01	N
atom  5.46958000e+00 1.26790000e+01 1.35827000e+01	Si
atom  8.01233000e+00 1.11212000e+01 1.35470000e+01	Si
atom  7.90886000e+00 1.37822000e+01 1.21211000e+01	Si
atom  1.45672000e+00 1.75360000e+01 1.38024000e+01	N
atom  3.78373000e+00 1.85810000e+01 1.31496000e+01	N
atom  8.11544000e-01 1.62513000e+01 1.28369000e+01	Si
atom  4.13027000e+00 1.55140000e+01 1.28161000e+01	N
atom  2.24755000e+00 1.90709000e+01 1.37990000e+01	Si
atom  4.24444000e+00 1.71823000e+01 1.22774000e+01	Si
atom  5.92352000e+00 1.72459000e+01 1.30639000e+01	N
atom  8.55105000e+00 1.53447000e+01 1.19624000e+01	N
atom  9.36663000e+00 1.61900000e+01 1.32346000e+01	Si
atom  5.75297000e+00 1.55621000e+01 1.35034000e+01	Si
atom  6.51777000e+00 1.95765000e+01 1.27036000e+01	N
atom  5.38780000e+00 1.87400000e+01 1.38524000e+01	Si
atom  7.26051000e+00 1.81095000e+01 1.23245000e+01	Si
atom  8.63575000e+00 1.77666000e+01 1.33168000e+01	N
atom  3.22348000e+00 1.43171000e+01 1.52707000e+01	N
atom  1.40030000e+00 1.14178000e+01 1.57626000e+01	N
atom  -2.10421000e-01 1.34148000e+01 1.44217000e+01	N
atom  -2.41375000e-01 1.19295000e+01 1.52718000e+01	Si
atom  -6.40184000e-01 1.49721000e+01 1.49286000e+01	Si
atom  4.83343000e+00 1.41597000e+01 1.57889000e+01	Si
atom  7.95750000e+00 1.12210000e+01 1.53553000e+01	N
atom  5.48652000e+00 1.27202000e+01 1.53130000e+01	N
atom  6.48208000e+00 1.15172000e+01 1.61074000e+01	Si
atom  9.21655000e+00 1.33829000e+01 1.48169000e+01	Si
atom  9.23383000e+00 1.51219000e+01 1.45325000e+01	N
atom  7.69360000e-01 1.57139000e+01 1.57771000e+01	N
atom  2.65781000e+00 1.94499000e+01 1.54356000e+01	N
atom  1.23495000e+00 1.74140000e+01 1.55400000e+01	Si
atom  7.95213000e+00 1.70181000e+01 1.62495000e+01	N
atom  8.90832000e+00 2.01747000e+01 1.53722000e+01	N
atom  9.51873000e+00 1.91168000e+01 1.41124000e+01	Si
atom  6.21568000e+00 1.70034000e+01 1.60727000e+01	Si
atom  5.65173000e+00 1.55334000e+01 1.51684000e+01	N
atom  8.96735000e+00 1.56124000e+01 1.61202000e+01	Si
atom  5.25042000e+00 1.83029000e+01 1.54881000e+01	N
atom  1.54976000e+00 1.38400000e+01 1.75002000e+01	N
atom  3.66558000e+00 1.16025000e+01 1.75764000e+01	N
atom  2.05991000e+00 1.21613000e+01 1.71386000e+01	Si
atom  9.44003000e-01 1.15464000e+01 1.83754000e+01	N
atom  2.32670000e+00 1.51397000e+01 1.64629000e+01	Si
atom  4.70966000e+00 1.41963000e+01 1.74907000e+01	N
atom  4.91021000e+00 1.26007000e+01 1.82389000e+01	Si
atom  6.47127000e+00 1.20203000e+01 1.77307000e+01	N
atom  9.25402000e+00 1.15556000e+01 1.79404000e+01	N
atom  8.56651000e+00 1.38930000e+01 1.64947000e+01	N
atom  -7.70131000e-02 1.53561000e+01 1.74269000e+01	Si
atom  7.18504000e-01 1.67818000e+01 1.82879000e+01	N
atom  3.73512000e+00 1.86768000e+01 1.81415000e+01	N
atom  2.75910000e+00 1.69677000e+01 1.65707000e+01	N
atom  2.56476000e+00 1.73603000e+01 1.83712000e+01	Si
atom  3.72514000e+00 1.84053000e+01 1.63649000e+01	Si
atom  -3.71297000e-01 1.81686000e+01 1.80992000e+01	Si
atom  -9.88421000e-02 1.82737000e+01 1.63125000e+01	N
atom  7.01928000e+00 1.92416000e+01 1.81036000e+01	N
atom  5.04617000e+00 1.55739000e+01 1.84745000e+01	Si
atom  8.11660000e+00 1.80566000e+01 1.76057000e+01	Si
atom  5.61095000e+00 1.69708000e+01 1.77091000e+01	N
atom  5.45188000e+00 1.84441000e+01 1.86028000e+01	Si
atom  1.86944000e+00 1.10979000e+01 1.98269000e+01	Si
atom  1.65432000e+00 1.28506000e+01 2.03635000e+01	N
atom  3.41310000e+00 1.08377000e+01 2.04172000e+01	N
atom  -3.10259000e-01 1.46386000e+01 1.90749000e+01	N
atom  6.86779000e-01 1.32480000e+01 1.89825000e+01	Si
atom  5.21730000e+00 1.27882000e+01 1.99470000e+01	N
atom  8.06950000e+00 1.30964000e+01 2.00355000e+01	N
atom  6.46406000e+00 1.38319000e+01 2.04252000e+01	Si
atom  7.85279000e+00 1.18362000e+01 1.88055000e+01	Si
atom  7.30981000e+00 1.04816000e+01 1.97680000e+01	N