lattice_vector  3.98417372e+01 0.00000000e+00 0.00000000e+00
lattice_vector  2.43960280e-15 3.98417372e+01 0.00000000e+00
lattice_vector  2.43960280e-15 2.43960280e-15 3.98417372e+01
atom  3.84073000e+00 1.29183000e+00 3.74140000e+00	N
atom  1.58752000e+00 1.86011000e+00 2.09360000e+00	N
atom  2.20777000e+00 1.95973000e+00 3.75062000e+00	Si
atom  4.07711000e+00 6.14223000e-01 2.18954000e+00	Si
atom  4.49903000e+00 1.75370000e+00 8.20745000e-01	N
atom  6.92158000e+00 1.10981000e+00 1.83919000e+00	N
atom  6.22615000e+00 1.35368000e+00 2.74587000e-01	Si
atom  5.24943000e+00 1.85418000e+00 4.65066000e+00	Si
atom  6.84062000e+00 2.64771000e+00 4.23245000e+00	N
atom  1.01034000e+00 1.30049000e+00 4.85976000e+00	N
atom  3.74993000e+00 2.05672000e+00 7.11309000e+00	Si
atom  1.30185000e+00 1.73186000e+00 8.33697000e+00	Si
atom  -7.67216000e-02 2.21644000e+00 5.96313000e+00	Si
atom  -2.67321000e-01 1.80914000e+00 7.62494000e+00	N
atom  4.42885000e+00 1.86409000e+00 8.68111000e+00	N
atom  3.67312000e+00 3.43121000e-01 6.80058000e+00	N
atom  7.04606000e+00 1.09552000e+00 9.62053000e+00	N
atom  7.85426000e+00 2.10072000e+00 7.23066000e+00	N
atom  7.63390000e+00 2.57330000e+00 8.95380000e+00	Si
atom  5.42846000e+00 6.63542000e-01 9.34236000e+00	Si
atom  8.96231000e+00 7.72625000e-01 6.87399000e+00	Si
atom  8.95216000e+00 1.10896000e+00 5.06721000e+00	N
atom  1.39073000e-01 1.53219000e+00 1.25891000e+01	N
atom  4.53727000e+00 8.75494000e-01 1.08798000e+01	N
atom  3.60854000e+00 2.32764000e+00 1.01876000e+01	Si
atom  -1.33121000e-01 2.63566000e+00 1.39306000e+01	Si
atom  1.89194000e+00 2.41308000e+00 9.78443000e+00	N
atom  2.79895000e+00 1.32876000e+00 1.47117000e+01	N
atom  5.70056000e+00 8.71908000e-01 1.22219000e+01	Si
atom  5.46643000e+00 2.35069000e+00 1.29945000e+01	N
atom  9.18644000e+00 5.20201000e-01 1.36848000e+01	N
atom  9.57305000e+00 7.09332000e-01 1.09269000e+01	N
atom  1.40661000e+00 2.01292000e+00 1.93016000e+01	N
atom  8.62073000e-01 1.91634000e+00 1.75908000e+01	Si
atom  4.58970000e+00 2.34388000e+00 1.95067000e+01	N
atom  -4.45222000e-02 1.52878000e+00 1.52299000e+01	N
atom  8.36697000e+00 2.41814000e+00 1.84308000e+01	N
atom  8.12054000e+00 6.52797000e-01 1.82251000e+01	Si
atom  4.89060000e+00 6.80990000e-01 1.92663000e+01	Si
atom  9.46464000e+00 6.39005000e-01 1.53925000e+01	Si
atom  8.98470000e+00 2.39724000e+00 1.57458000e+01	N
atom  6.39319000e+00 9.29228000e-01 1.84314000e+01	N
atom  2.52997000e-01 2.04084000e+00 2.05917000e+01	Si
atom  5.89034000e-01 8.27049000e-01 2.17791000e+01	N
atom  4.51534000e-03 1.41230000e+00 2.33159000e+01	Si
atom  4.17631000e+00 9.14489000e-01 2.42469000e+01	N
atom  1.07439000e+00 2.81096000e+00 2.36712000e+01	N
atom  5.70475000e+00 2.03996000e+00 2.24129000e+01	N
atom  7.95789000e+00 1.44939000e+00 2.38584000e+01	N
atom  9.05211000e+00 2.18711000e+00 2.15119000e+01	N
atom  7.45574000e+00 2.49047000e+00 2.24717000e+01	Si
atom  5.00981000e+00 4.52745000e-01 2.27477000e+01	Si
atom  4.08475000e+00 1.19436000e+00 2.71021000e+01	N
atom  3.60568000e-01 2.41088000e+00 2.62282000e+01	N
atom  7.03849000e-01 1.39356000e+00 2.89654000e+01	N
atom  4.30071000e+00 2.04563000e+00 2.55037000e+01	Si
atom  3.59151000e-01 2.78645000e+00 2.79545000e+01	Si
atom  6.68971000e+00 5.31189000e-01 2.70549000e+01	N
atom  7.47415000e+00 1.27588000e+00 2.55150000e+01	Si
atom  6.11168000e+00 1.26336000e+00 2.97242000e+01	N
atom  8.87677000e+00 2.01499000e+00 2.62715000e+01	N
atom  5.63342000e+00 1.51811000e+00 2.79598000e+01	Si
atom  6.06398000e+00 2.44182000e+00 2.55615000e+01	N
atom  2.06979000e+00 2.03805000e+00 3.19356000e+01	Si
atom  2.79093000e+00 1.84714000e+00 3.34906000e+01	N
atom  3.59054000e+00 2.50911000e+00 3.11086000e+01	N
atom  1.77564000e-01 1.35256000e+00 3.05197000e+01	Si
atom  4.51315000e+00 1.59189000e+00 3.31185000e+01	Si
atom  4.51179000e+00 1.17686000e+00 3.04659000e+01	Si
atom  7.55133000e+00 2.04973000e+00 3.03650000e+01	Si
atom  7.99545000e+00 2.04006000e+00 3.20600000e+01	N
atom  9.18574000e+00 8.62573000e-01 3.23526000e+01	Si
atom  9.15391000e+00 1.99077000e+00 2.96300000e+01	N
atom  1.70983000e+00 1.67595000e+00 3.48798000e+01	Si
atom  4.32988000e+00 2.54846000e+00 3.57887000e+01	Si
atom  2.08360000e+00 2.02346000e+00 3.91070000e+01	N
atom  2.73591000e+00 2.26240000e+00 3.61715000e+01	N
atom  3.36513000e+00 1.00887000e+00 3.96390000e+01	Si
atom  6.54508000e-01 4.76461000e-01 3.55072000e+01	N
atom  9.55351000e+00 5.14521000e-01 3.54045000e+01	Si
atom  5.41933000e+00 2.37419000e+00 3.71384000e+01	N
atom  4.84023000e+00 1.15082000e+00 3.48040000e+01	N
atom  8.46755000e+00 1.26493000e+00 3.65808000e+01	N
atom  8.47171000e+00 8.37646000e-01 3.82869000e+01	Si
atom  9.20985000e+00 2.14275000e+00 3.91070000e+01	N
atom  5.69633000e+00 6.70821000e-01 3.75878000e+01	Si
atom  6.92404000e+00 4.51496000e-01 3.87892000e+01	N
atom  2.75818000e+00 4.09113000e+00 1.02332000e+00	N
atom  2.48552000e+00 3.67049000e+00 3.89621000e+00	N
atom  1.99111000e+00 4.68357000e+00 2.52024000e+00	Si
atom  1.42148000e+00 2.84060000e+00 6.13041000e-01	Si
atom  4.60119000e+00 3.50425000e+00 9.02684000e-01	Si
atom  2.96112000e-01 4.82125000e+00 2.21368000e+00	N
atom  8.60637000e+00 3.24745000e+00 1.86949000e+00	N
atom  5.73177000e+00 3.83162000e+00 2.09743000e+00	N
atom  8.24240000e+00 3.34929000e+00 8.45709000e-02	Si
atom  7.03866000e+00 2.74708000e+00 2.48176000e+00	Si
atom  1.66410000e-01 3.96392000e+00 6.11596000e+00	N
atom  1.59625000e+00 4.26708000e+00 7.07434000e+00	Si
atom  1.12187000e+00 4.68950000e+00 8.75696000e+00	N
atom  2.19312000e+00 2.73874000e+00 7.21607000e+00	N
atom  9.57522000e+00 3.53789000e+00 5.32968000e+00	N
atom  5.45972000e+00 4.42679000e+00 6.08205000e+00	Si
atom  5.33598000e+00 4.88857000e+00 9.34535000e+00	Si
atom  9.15225000e+00 4.94565000e+00 7.84541000e+00	N
atom  4.71286000e+00 2.85003000e+00 5.94596000e+00	N
atom  7.21374000e+00 4.45015000e+00 6.07208000e+00	N
atom  7.96310000e+00 2.81177000e+00 5.52829000e+00	Si
atom  6.89049000e+00 4.17229000e+00 9.25127000e+00	N
atom  9.27773000e+00 2.84353000e+00 9.35900000e+00	N
atom  1.11850000e+00 3.76502000e+00 1.42481000e+01	N
atom  9.79497000e-01 3.83123000e+00 1.02585000e+01	Si
atom  3.57798000e+00 4.08419000e+00 1.42585000e+01	N
atom  1.79682000e+00 4.67598000e+00 1.15306000e+01	N
atom  4.10582000e+00 4.02882000e+00 1.02312000e+01	N
atom  2.45241000e+00 5.03562000e+00 1.31728000e+01	Si
atom  8.42378000e+00 4.29400000e+00 1.37418000e+01	N
atom  5.25898000e+00 3.82906000e+00 1.37951000e+01	Si
atom  3.08087000e+00 4.37118000e+00 1.89880000e+01	N
atom  1.83293000e+00 4.43563000e+00 1.77846000e+01	Si
atom  1.86593000e+00 3.04010000e+00 1.67202000e+01	N
atom  2.50064000e+00 3.00113000e+00 1.50297000e+01	Si
atom  1.90325000e-01 4.62948000e+00 1.84665000e+01	N
atom  7.98635000e+00 4.90418000e+00 1.64149000e+01	N
atom  4.68595000e+00 4.93853000e+00 1.90944000e+01	Si
atom  7.96520000e+00 3.62964000e+00 1.52562000e+01	Si
atom  5.83978000e+00 4.11044000e+00 1.80290000e+01	N
atom  6.08940000e+00 3.55033000e+00 1.53417000e+01	N
atom  6.22544000e+00 4.80348000e+00 1.65454000e+01	Si
atom  6.49023000e+00 2.66036000e+00 1.87982000e+01	Si
atom  4.75372000e-01 3.64734000e+00 2.11454000e+01	N
atom  1.85217000e+00 3.66402000e+00 2.22701000e+01	Si
atom  3.18396000e+00 2.91294000e+00 2.15167000e+01	N
atom  -1.44160000e-01 4.88192000e+00 2.01709000e+01	Si
atom  2.94903000e+00 2.80130000e+00 1.97766000e+01	Si
atom  7.02599000e+00 4.79173000e+00 2.11341000e+01	Si
atom  7.24857000e+00 4.19245000e+00 2.28222000e+01	N
atom  6.97763000e+00 3.08143000e+00 2.04767000e+01	N
atom  5.20200000e+00 4.74891000e+00 2.07791000e+01	N
atom  5.04367000e+00 2.97704000e+00 2.11435000e+01	Si
atom  8.79386000e+00 3.20945000e+00 2.00607000e+01	Si
atom  8.59847000e+00 4.93403000e+00 2.04254000e+01	N
atom  3.99642000e+00 4.95487000e+00 2.48268000e+01	Si
atom  3.19881000e+00 3.46125000e+00 2.52162000e+01	N
atom  1.48287000e+00 3.44235000e+00 2.52775000e+01	Si
atom  1.70117000e+00 3.84032000e+00 2.82413000e+01	N
atom  8.36873000e-01 4.95763000e+00 2.55354000e+01	N
atom  6.39879000e+00 3.84098000e+00 2.64838000e+01	Si
atom  5.83465000e+00 4.29829000e+00 2.93039000e+01	Si
atom  7.99775000e+00 4.52658000e+00 2.65646000e+01	N
atom  5.72121000e+00 3.27913000e+00 2.79366000e+01	N
atom  5.26528000e+00 5.08788000e+00 2.60056000e+01	N
atom  3.61271000e-01 4.58096000e+00 3.42710000e+01	Si
atom  4.33204000e+00 3.87396000e+00 3.18323000e+01	Si
atom  2.25577000e-01 4.48720000e+00 3.11353000e+01	Si
atom  4.70480000e-01 2.85430000e+00 3.43480000e+01	N
atom  3.38873000e+00 4.98203000e+00 3.28306000e+01	N
atom  7.47933000e-01 2.85506000e+00 3.12497000e+01	N
atom  8.39021000e+00 4.80312000e+00 3.09107000e+01	Si
atom  7.24977000e+00 3.69381000e+00 3.00511000e+01	N
atom  7.25448000e+00 3.20286000e+00 3.30460000e+01	Si
atom  5.54978000e+00 2.93499000e+00 3.27533000e+01	N
atom  4.80370000e+00 4.79820000e+00 3.05504000e+01	N
atom  7.84344000e+00 4.82197000e+00 3.25760000e+01	N
atom  2.95114000e-01 2.93658000e+00 3.69675000e+01	N
atom  2.27699000e+00 4.42491000e+00 3.79926000e+01	N
atom  1.93016000e+00 2.79034000e+00 3.76126000e+01	Si
atom  4.56321000e+00 4.16645000e+00 3.52700000e+01	N
atom  3.02040000e-02 3.50003000e+00 3.96507000e+01	N
atom  4.70215000e+00 4.50458000e+00 3.92223000e+01	N
atom  5.85146000e+00 3.68362000e+00 3.82233000e+01	Si
atom  7.29815000e+00 3.42746000e+00 3.47963000e+01	N
atom  9.35340000e+00 4.05194000e+00 3.67854000e+01	N
atom  6.64694000e+00 2.88554000e+00 3.94808000e+01	N
atom  8.66613000e+00 2.85554000e+00 3.57266000e+01	Si
atom  6.74354000e+00 4.68097000e+00 3.71093000e+01	N
atom  6.23675000e+00 4.68399000e+00 3.54027000e+01	Si
atom  8.48406000e+00 4.85124000e+00 3.92205000e+01	N
atom  2.80501000e+00 6.05194000e+00 3.29887000e+00	N
atom  4.65432000e-01 6.84719000e+00 4.37570000e+00	N
atom  2.82265000e+00 6.83086000e+00 8.82196000e-02	N
atom  3.30004000e+00 4.99629000e+00 4.60487000e+00	Si
atom  5.19353000e+00 6.70746000e+00 1.93982000e+00	N
atom  7.34874000e+00 5.99261000e+00 3.44114000e+00	N
atom  5.76513000e+00 5.36969000e+00 2.94615000e+00	Si
atom  8.51115000e+00 7.08621000e+00 2.61111000e+00	Si
atom  9.36780000e+00 6.10322000e+00 1.57060000e+00	N
atom  5.04197000e+00 5.06346000e+00 4.56641000e+00	N
atom  2.70902000e+00 7.02941000e+00 6.70462000e+00	Si
atom  1.01954000e+00 6.42624000e+00 8.91226000e+00	Si
atom  2.70675000e+00 5.39649000e+00 6.17726000e+00	N
atom  1.15134000e+00 7.18879000e+00 7.37097000e+00	N
atom  2.38697000e+00 6.79992000e+00 9.86683000e+00	N
atom  6.25720000e+00 7.12553000e+00 5.89784000e+00	N
atom  8.93875000e+00 6.50389000e+00 5.62441000e+00	N
atom  7.19946000e+00 6.71740000e+00 8.61891000e+00	N
atom  5.76625000e+00 7.14741000e+00 7.57302000e+00	Si
atom  5.36770000e+00 5.27179000e+00 7.57815000e+00	N
atom  7.32004000e+00 6.04020000e+00 5.10974000e+00	Si
atom  7.44462000e+00 5.11473000e+00 7.84532000e+00	Si
atom  1.52394000e+00 6.22819000e+00 1.40208000e+01	N
atom  3.61916000e+00 6.17261000e+00 1.23980000e+01	N
atom  3.17636000e+00 5.56984000e+00 1.07897000e+01	Si
atom  8.11810000e+00 6.84392000e+00 1.44293000e+01	N
atom  5.30195000e+00 6.55761000e+00 1.21119000e+01	Si
atom  7.12866000e+00 6.93747000e+00 1.19011000e+01	N
atom  7.61570000e+00 5.71982000e+00 1.30716000e+01	Si
atom  8.88123000e+00 5.52472000e+00 1.05615000e+01	N
atom  4.82468000e+00 6.43410000e+00 1.03048000e+01	N
atom  7.99638000e+00 6.98743000e+00 1.01931000e+01	Si
atom  5.93454000e+00 5.19671000e+00 1.31504000e+01	N
atom  2.14388000e+00 7.40084000e+00 1.71129000e+01	Si
atom  1.95083000e+00 5.75710000e+00 1.66455000e+01	N
atom  9.77564000e-01 5.17865000e+00 1.53350000e+01	Si
atom  4.54253000e+00 6.70949000e+00 1.88987000e+01	N
atom  7.74779000e+00 6.64178000e+00 1.60450000e+01	Si
atom  5.94794000e+00 6.51903000e+00 1.63487000e+01	N
atom  4.50877000e-01 6.40019000e+00 2.07414000e+01	N
atom  6.30347000e-01 6.34862000e+00 2.24590000e+01	Si
atom  3.06506000e+00 6.76919000e+00 2.32520000e+01	Si
atom  2.04192000e+00 5.26676000e+00 2.28452000e+01	N
atom  3.57779000e+00 7.18044000e+00 2.14978000e+01	N
atom  4.87107000e+00 5.65350000e+00 2.34108000e+01	N
atom  4.92083000e+00 6.12173000e+00 2.16965000e+01	Si
atom  6.66915000e+00 6.52008000e+00 2.17483000e+01	N
atom  6.67115000e+00 5.70783000e+00 2.35879000e+01	Si
atom  9.48939000e+00 6.39680000e+00 2.00611000e+01	Si
atom  -2.67446000e-01 6.97470000e+00 2.91497000e+01	Si
atom  3.55219000e+00 5.91300000e+00 2.85597000e+01	N
atom  1.30941000e+00 6.49805000e+00 2.62831000e+01	Si
atom  3.00534000e+00 6.36109000e+00 2.53670000e+01	N
atom  9.56066000e-01 6.56679000e+00 2.80159000e+01	N
atom  1.93769000e+00 5.42154000e+00 2.89118000e+01	Si
atom  -1.81829000e-01 7.24155000e+00 2.54599000e+01	N
atom  4.78188000e+00 6.06742000e+00 2.73139000e+01	Si
atom  7.55530000e+00 6.53854000e+00 2.47773000e+01	N
atom  7.15582000e+00 6.92780000e+00 2.92114000e+01	Si
atom  6.00425000e+00 5.81656000e+00 2.85178000e+01	N
atom  8.21281000e+00 6.28466000e+00 2.64109000e+01	Si
atom  2.62019000e+00 6.24339000e+00 3.18595000e+01	Si
atom  6.80294000e-02 6.95983000e+00 3.23763000e+01	Si
atom  7.49764000e-02 5.23800000e+00 3.26984000e+01	N
atom  3.36039000e+00 5.19578000e+00 3.45230000e+01	Si
atom  1.81445000e+00 5.36345000e+00 3.07010000e+01	N
atom  3.52650000e+00 7.29155000e+00 3.08614000e+01	N
atom  8.02942000e+00 6.11731000e+00 3.36184000e+01	Si
atom  8.50394000e+00 6.28747000e+00 2.99811000e+01	N
atom  6.61342000e+00 6.23992000e+00 3.47288000e+01	N
atom  9.48278000e+00 6.25605000e+00 3.46409000e+01	N
atom  4.64440000e+00 6.44086000e+00 2.99125000e+01	Si
atom  6.06886000e+00 7.33356000e+00 3.04869000e+01	N
atom  3.96987000e+00 6.81620000e+00 3.49519000e+01	N
atom  3.12259000e+00 5.19407000e+00 3.93219000e+01	Si
atom  2.62426000e+00 7.03910000e+00 3.73585000e+01	N
atom  4.14447000e-02 5.66688000e+00 3.76182000e+01	N
atom  1.68837000e+00 5.18385000e+00 3.51850000e+01	N
atom  1.72988000e+00 5.57818000e+00 3.68652000e+01	Si
atom  8.39145000e+00 6.99923000e+00 3.72929000e+01	N
atom  8.22259000e+00 5.30792000e+00 3.75412000e+01	Si
atom  9.20766000e+00 7.47852000e+00 3.58751000e+01	Si
atom  2.54968000e+00 8.41436000e+00 2.50015000e+00	N
atom  3.67865000e+00 7.57026000e+00 1.55759000e+00	Si
atom  1.96999000e+00 7.45215000e+00 3.80453000e+00	Si
atom  4.72941000e+00 8.85914000e+00 7.87904000e-01	N
atom  6.19396000e+00 7.98655000e+00 1.12823000e+00	Si
atom  7.39101000e+00 8.49172000e+00 2.30579000e+00	N
atom  2.50333000e+00 8.21164000e+00 5.33712000e+00	N
atom  4.13138000e+00 9.36898000e+00 9.50958000e+00	N
atom  3.83836000e+00 7.63272000e+00 9.44378000e+00	Si
atom  9.06106000e-02 7.48467000e+00 6.10799000e+00	Si
atom  3.99412000e+00 7.42629000e+00 7.73940000e+00	N
atom  8.04233000e+00 8.97520000e+00 4.93993000e+00	N
atom  6.20326000e+00 8.99181000e+00 7.50302000e+00	N
atom  6.57117000e+00 8.85867000e+00 5.77913000e+00	Si
atom  9.02754000e+00 9.85283000e+00 8.42115000e+00	N
atom  7.30742000e+00 9.70604000e+00 8.80359000e+00	Si
atom  2.99651000e+00 8.81112000e+00 1.42427000e+01	N
atom  3.98217000e-01 8.53173000e+00 1.31648000e+01	N
atom  1.51803000e+00 7.87265000e+00 1.43603000e+01	Si
atom  3.93959000e+00 9.48903000e+00 1.29376000e+01	Si
atom  5.16804000e+00 8.38202000e+00 1.24507000e+01	N
atom  6.80053000e+00 8.77824000e+00 1.19337000e+01	Si
atom  7.19685000e+00 8.85074000e+00 1.02605000e+01	N
atom  7.71012000e+00 9.67586000e+00 1.29850000e+01	N
atom  9.76453000e-01 8.20554000e+00 1.59998000e+01	N
atom  3.67948000e+00 8.15189000e+00 1.67673000e+01	N
atom  3.59477000e+00 9.51242000e+00 1.56831000e+01	Si
atom  3.84945000e+00 9.35843000e+00 1.95311000e+01	N
atom  1.94400000e+00 7.61153000e+00 1.88570000e+01	N
atom  3.77138000e-01 7.59050000e+00 1.94954000e+01	Si
atom  5.11586000e+00 7.51929000e+00 1.74314000e+01	Si
atom  7.93928000e+00 8.58398000e+00 1.84886000e+01	Si
atom  8.53330000e+00 7.68183000e+00 1.71217000e+01	N
atom  6.20946000e+00 8.83582000e+00 1.80734000e+01	N
atom  3.74309000e+00 8.31403000e+00 2.39046000e+01	N
atom  2.66671000e+00 9.30805000e+00 2.27933000e+01	Si
atom  1.47937000e+00 7.66995000e+00 2.32463000e+01	N
atom  1.06698000e+00 8.40806000e+00 2.48120000e+01	Si
atom  1.70677000e+00 9.72138000e+00 2.12134000e+01	N
atom  3.41094000e+00 7.66510000e+00 1.98003000e+01	Si
atom  6.09994000e+00 9.24421000e+00 2.08308000e+01	N
atom  7.35530000e+00 8.07575000e+00 2.12968000e+01	Si
atom  8.01744000e+00 8.52790000e+00 2.28846000e+01	N
atom  8.35813000e+00 7.65908000e+00 1.99350000e+01	N
atom  7.95386000e+00 8.20557000e+00 2.45467000e+01	Si
atom  1.95745000e+00 8.32894000e+00 2.63064000e+01	N
atom  3.68737000e+00 8.18674000e+00 2.56362000e+01	Si
atom  3.16112000e+00 9.40391000e+00 2.87531000e+01	N
atom  1.77250000e+00 9.48528000e+00 2.76869000e+01	Si
atom  3.54876000e-01 9.45094000e+00 2.87307000e+01	N
atom  5.76846000e+00 9.61220000e+00 2.84033000e+01	N
atom  7.60873000e+00 7.51007000e+00 2.75805000e+01	N
atom  4.88353000e+00 7.67823000e+00 2.68435000e+01	N
atom  6.74986000e+00 9.10812000e+00 2.54795000e+01	N
atom  6.33227000e+00 8.60694000e+00 2.70966000e+01	Si
atom  1.85291000e+00 9.08540000e+00 3.29404000e+01	Si
atom  3.31001000e+00 9.04148000e+00 3.04444000e+01	Si
atom  2.94817000e-01 9.38197000e+00 3.04472000e+01	Si
atom  -2.35887000e-02 7.64267000e+00 3.07482000e+01	N
atom  1.82924000e+00 9.52274000e+00 3.12443000e+01	N
atom  1.68936000e+00 7.40935000e+00 3.28055000e+01	N
atom  8.99236000e+00 8.86884000e+00 3.34859000e+01	Si
atom  5.76436000e+00 8.62233000e+00 3.32625000e+01	N
atom  6.72384000e+00 8.18508000e+00 3.18689000e+01	Si
atom  8.11019000e+00 7.61986000e+00 3.27847000e+01	N
atom  5.49486000e+00 7.54586000e+00 3.46294000e+01	Si
atom  7.35956000e+00 9.66924000e+00 3.09388000e+01	N
atom  -3.81339000e-01 7.81155000e+00 3.59370000e+01	N
atom  6.09173000e-01 9.30941000e+00 3.55988000e+01	Si
atom  3.46891000e+00 7.92127000e+00 3.61859000e+01	Si
atom  2.27094000e+00 9.16719000e+00 3.58853000e+01	N
atom  4.56259000e-01 8.21572000e+00 3.86726000e+01	N
atom  2.18625000e+00 7.99351000e+00 3.87480000e+01	Si
atom  2.70701000e+00 9.73437000e+00 3.88964000e+01	N
atom  -3.91490000e-01 9.46423000e+00 3.95649000e+01	Si
atom  5.15676000e+00 8.57995000e+00 3.60979000e+01	N
atom  8.48980000e+00 8.89694000e+00 3.51418000e+01	N
atom  7.17175000e+00 7.98904000e+00 3.95582000e+01	N
atom  8.47412000e+00 8.38019000e+00 3.85597000e+01	Si
atom  2.44948000e+00 1.12204000e+01 1.49425000e+00	N
atom  3.20692000e+00 1.05289000e+01 4.07294000e+00	N
atom  2.21617000e+00 1.00890000e+01 2.77090000e+00	Si
atom  6.88590000e-01 1.01767000e+01 3.50455000e+00	N
atom  4.47223000e+00 1.17848000e+01 2.21215000e-01	N
atom  4.64977000e+00 1.13465000e+01 4.32869000e+00	Si
atom  8.06513000e+00 1.12586000e+01 2.94747000e+00	N
atom  5.88571000e+00 1.00813000e+01 4.64553000e+00	N
atom  7.28696000e+00 9.80308000e+00 3.53736000e+00	Si
atom  5.18089000e+00 1.21332000e+01 2.81102000e+00	N
atom  2.78320000e+00 9.87246000e+00 5.60699000e+00	Si
atom  2.34068000e+00 1.14185000e+01 7.62641000e+00	Si
atom  1.36332000e-01 1.05615000e+01 5.17753000e+00	Si
atom  1.46342000e+00 1.10505000e+01 6.16320000e+00	N
atom  3.69729000e+00 1.02251000e+01 7.01429000e+00	N
atom  1.74202000e+00 1.09841000e+01 9.21620000e+00	N
atom  4.98209000e+00 1.00676000e+01 8.17925000e+00	Si
atom  6.19797000e+00 1.10777000e+01 8.80899000e+00	N
atom  9.26194000e+00 1.16142000e+01 6.12573000e+00	N
atom  5.45114000e-01 1.11583000e+01 1.35220000e+01	N
atom  3.03758000e+00 1.04716000e+01 1.02588000e+01	Si
atom  -6.07445000e-02 1.02036000e+01 1.10384000e+01	N
atom  4.20946000e-01 1.15712000e+01 1.01696000e+01	Si
atom  9.84412000e-01 9.96213000e+00 1.24148000e+01	Si
atom  4.50383000e+00 1.11632000e+01 1.32844000e+01	N
atom  2.61235000e+00 9.81005000e+00 1.17893000e+01	N
atom  1.61358000e+00 1.18774000e+01 1.47299000e+01	Si
atom  9.38672000e+00 1.06210000e+01 1.10806000e+01	N
atom  7.97921000e+00 1.08646000e+01 1.43116000e+01	Si
atom  9.40919000e+00 9.75266000e+00 1.25585000e+01	Si
atom  3.05261000e+00 1.12682000e+01 1.56011000e+01	N
atom  1.67343000e+00 1.11353000e+01 1.84217000e+01	N
atom  2.23297000e+00 1.20532000e+01 1.70078000e+01	Si
atom  3.22014000e-01 1.21579000e+01 1.89253000e+01	Si
atom  6.39218000e+00 1.02381000e+01 1.68884000e+01	Si
atom  4.69545000e+00 1.15697000e+01 1.49899000e+01	Si
atom  5.54283000e+00 1.11907000e+01 1.82532000e+01	N
atom  7.80407000e+00 1.03588000e+01 1.59513000e+01	N
atom  8.44389000e+00 1.02327000e+01 1.84853000e+01	N
atom  8.86802000e+00 1.11596000e+01 1.70657000e+01	Si
atom  5.27644000e+00 1.00058000e+01 1.56234000e+01	N
atom  5.47309000e+00 9.83428000e+00 1.92685000e+01	Si
atom  6.45168000e-01 1.13521000e+01 2.38258000e+01	Si
atom  3.91732000e+00 1.06440000e+01 2.24947000e+01	N
atom  1.76845000e+00 1.00100000e+01 2.42316000e+01	N
atom  -4.18083000e-02 1.01731000e+01 2.11279000e+01	Si
atom  3.17852000e+00 1.19741000e+01 2.03288000e+01	N
atom  -2.85309000e-01 1.17257000e+01 2.04611000e+01	N
atom  2.49268000e+00 1.04380000e+01 1.98483000e+01	Si
atom  8.44264000e+00 1.05755000e+01 2.13267000e+01	N
atom  6.40410000e+00 1.05754000e+01 2.34619000e+01	N
atom  8.00779000e+00 1.02589000e+01 2.28843000e+01	Si
atom  5.60392000e+00 1.04378000e+01 2.19858000e+01	Si
atom  9.02327000e+00 1.11775000e+01 2.38854000e+01	N
atom  8.96388000e+00 1.11999000e+01 1.98231000e+01	Si
atom  5.68967000e+00 1.20794000e+01 2.14165000e+01	N
atom  -2.88459000e-01 1.14977000e+01 2.53103000e+01	N
atom  2.90426000e+00 1.10290000e+01 2.52232000e+01	Si
atom  1.89002000e+00 1.09781000e+01 2.68828000e+01	N
atom  4.17457000e+00 9.92457000e+00 2.60349000e+01	N
atom  4.31397000e+00 1.03145000e+01 2.77815000e+01	Si
atom  5.69790000e+00 1.06049000e+01 2.51578000e+01	Si
atom  9.21970000e+00 1.12794000e+01 2.65527000e+01	N
atom  6.52389000e+00 1.16266000e+01 2.64890000e+01	N
atom  8.91716000e+00 1.12632000e+01 2.95452000e+01	N
atom  1.60467000e-01 1.12427000e+01 3.29962000e+01	Si
atom  3.20269000e+00 9.91110000e+00 3.35783000e+01	N
atom  4.72409000e-01 9.72849000e+00 3.39156000e+01	N
atom  4.66642000e+00 9.89182000e+00 3.11374000e+01	N
atom  4.81766000e+00 1.00758000e+01 3.28656000e+01	Si
atom  5.11267000e+00 1.16695000e+01 3.34133000e+01	N
atom  9.06665000e+00 1.00544000e+01 3.07691000e+01	Si
atom  9.20057000e+00 1.16762000e+01 3.36336000e+01	Si
atom  5.99665000e+00 1.03406000e+01 3.00475000e+01	Si
atom  9.40605000e+00 1.03084000e+01 3.25126000e+01	N
atom  6.23196000e+00 1.19694000e+01 2.98779000e+01	N
atom  2.93600000e+00 1.06379000e+01 3.51398000e+01	Si
atom  -1.40436000e-02 1.06902000e+01 3.63575000e+01	N
atom  4.08842000e+00 1.11253000e+01 3.63143000e+01	N
atom  4.01567000e-01 1.09880000e+01 3.94955000e+01	N
atom  4.32460000e+00 1.00789000e+01 3.95851000e+01	Si
atom  2.08403000e+00 1.13012000e+01 3.95238000e+01	Si
atom  9.83311000e-01 1.20405000e+01 3.67390000e+01	Si
atom  1.95340000e+00 1.20532000e+01 3.53018000e+01	N
atom  5.54846000e+00 1.03284000e+01 3.83742000e+01	N
atom  8.76154000e+00 1.11506000e+01 3.89438000e+01	Si
atom  6.76785000e+00 1.09757000e+01 3.56928000e+01	N
atom  9.38651000e+00 1.15497000e+01 3.53778000e+01	N
atom  8.35563000e+00 1.03255000e+01 3.60488000e+01	Si
atom  8.40062000e+00 9.93296000e+00 3.77670000e+01	N
atom  5.84832000e+00 1.19971000e+01 3.90174000e+01	Si
atom  5.50173000e+00 1.01563000e+01 3.66680000e+01	Si
atom  1.01509000e+00 1.33742000e+01 3.70836000e-01	N
atom  8.31428000e-01 1.38843000e+01 3.31078000e+00	N
atom  3.24477000e+00 1.39468000e+01 1.99798000e+00	N
atom  3.84646000e+00 1.23157000e+01 1.70771000e+00	Si
atom  1.54619000e+00 1.42253000e+01 1.76463000e+00	Si
atom  -4.21369000e-01 1.23324000e+01 4.48229000e-01	Si
atom  6.93221000e+00 1.26280000e+01 3.09957000e+00	Si
atom  7.63413000e+00 1.41309000e+01 2.54912000e+00	N
atom  9.24147000e+00 1.42773000e+01 1.75121000e+00	Si
atom  6.66680000e+00 1.29135000e+01 4.82897000e+00	N
atom  9.36659000e+00 1.36553000e+01 4.76814000e+00	N
atom  4.15350000e+00 1.27479000e+01 5.24824000e+00	N
atom  3.34690000e+00 1.37650000e+01 6.41000000e+00	Si
atom  3.12228000e+00 1.29626000e+01 7.93561000e+00	N
atom  3.59992000e+00 1.33614000e+01 9.47828000e+00	Si
atom  1.72253000e+00 1.42936000e+01 5.96801000e+00	N
atom  8.15916000e+00 1.41173000e+01 6.93803000e+00	N
atom  5.28201000e+00 1.37119000e+01 9.25808000e+00	N
atom  8.27190000e+00 1.42536000e+01 8.68690000e+00	Si
atom  6.49590000e+00 1.25006000e+01 9.78874000e+00	Si
atom  8.10714000e+00 1.27941000e+01 5.79219000e+00	Si
atom  5.33852000e+00 1.40306000e+01 5.03475000e+00	Si
atom  8.14599000e+00 1.28129000e+01 9.53527000e+00	N
atom  6.74887000e-01 1.28887000e+01 1.12482000e+01	N
atom  1.75029000e+00 1.32678000e+01 1.37186000e+01	N
atom  1.98710000e-01 1.28278000e+01 1.29194000e+01	Si
atom  4.35596000e+00 1.39592000e+01 1.29856000e+01	N
atom  3.71145000e+00 1.20802000e+01 1.06058000e+01	N
atom  2.92452000e+00 1.44909000e+01 1.37821000e+01	Si
atom  4.65149000e+00 1.24526000e+01 1.21172000e+01	Si
atom  7.49425000e+00 1.31247000e+01 1.25762000e+01	Si
atom  9.15925000e+00 1.29877000e+01 1.20881000e+01	N
atom  7.32054000e+00 1.24090000e+01 1.41565000e+01	N
atom  6.31089000e+00 1.24401000e+01 1.15636000e+01	N
atom  9.53792000e+00 1.22675000e+01 1.05408000e+01	Si
atom  3.35410000e+00 1.30924000e+01 1.78011000e+01	N
atom  2.83678000e+00 1.33621000e+01 1.94362000e+01	Si
atom  8.30962000e-01 1.25241000e+01 1.61369000e+01	N
atom  1.11097000e+00 1.35736000e+01 1.96521000e+01	N
atom  5.45763000e+00 1.28293000e+01 1.58784000e+01	N
atom  7.77332000e+00 1.36956000e+01 1.85309000e+01	Si
atom  7.10398000e+00 1.31492000e+01 1.57123000e+01	Si
atom  6.01389000e+00 1.40271000e+01 1.84708000e+01	N
atom  7.97609000e+00 1.26302000e+01 1.71944000e+01	N
atom  5.08079000e+00 1.28163000e+01 1.76145000e+01	Si
atom  3.50924000e+00 1.35714000e+01 2.27118000e+01	N
atom  1.78606000e+00 1.38392000e+01 2.38136000e+01	Si
atom  2.59870000e-01 1.32690000e+01 2.11860000e+01	Si
atom  9.39650000e-01 1.26107000e+01 2.25967000e+01	N
atom  4.23963000e+00 1.37701000e+01 2.42919000e+01	Si
atom  3.98123000e+00 1.22556000e+01 2.17566000e+01	Si
atom  9.01613000e+00 1.29216000e+01 2.38632000e+01	Si
atom  7.17426000e+00 1.30194000e+01 2.12881000e+01	Si
atom  8.34013000e+00 1.36146000e+01 2.24349000e+01	N
atom  8.09448000e+00 1.27067000e+01 1.98797000e+01	N
atom  1.91325000e+00 1.23926000e+01 2.48345000e+01	N
atom  5.39049000e-02 1.38764000e+01 2.86869000e+01	Si
atom  4.54579000e-01 1.37528000e+01 2.70141000e+01	N
atom  8.56607000e-01 1.22805000e+01 2.62477000e+01	Si
atom  4.46620000e+00 1.21928000e+01 2.51171000e+01	N
atom  1.16644000e+00 1.31374000e+01 2.96541000e+01	N
atom  4.30836000e+00 1.20469000e+01 2.80166000e+01	N
atom  8.02933000e+00 1.35245000e+01 2.50932000e+01	N
atom  5.75489000e+00 1.42427000e+01 2.64412000e+01	N
atom  7.84421000e+00 1.26406000e+01 2.96143000e+01	Si
atom  4.71547000e+00 1.28430000e+01 2.95043000e+01	Si
atom  8.03291000e+00 1.25184000e+01 2.65233000e+01	Si
atom  5.16281000e+00 1.26122000e+01 2.66004000e+01	Si
atom  8.40261000e+00 1.32494000e+01 2.80444000e+01	N
atom  2.02023000e+00 1.33363000e+01 3.11509000e+01	Si
atom  3.69560000e+00 1.29173000e+01 3.09810000e+01	N
atom  3.83928000e+00 1.40888000e+01 3.35885000e+01	N
atom  1.32033000e+00 1.23043000e+01 3.23625000e+01	N
atom  4.61015000e+00 1.30554000e+01 3.24942000e+01	Si
atom  8.39091000e+00 1.37928000e+01 3.07877000e+01	N
atom  7.69077000e+00 1.36291000e+01 3.23646000e+01	Si
atom  6.04441000e+00 1.38916000e+01 3.19787000e+01	N
atom  7.61704000e+00 1.22247000e+01 3.33754000e+01	N
atom  6.35976000e+00 1.22507000e+01 3.45280000e+01	Si
atom  2.74208000e+00 1.35857000e+01 3.48089000e+01	Si
atom  3.76709000e+00 1.25213000e+01 3.72212000e+01	Si
atom  1.60352000e+00 1.40654000e+01 3.86736000e+01	Si
atom  2.20639000e+00 1.24734000e+01 3.80585000e+01	N
atom  3.48687000e+00 1.40085000e+01 3.62878000e+01	N
atom  -4.81511000e-02 1.34094000e+01 3.66277000e+01	N
atom  -1.37533000e-01 1.44219000e+01 3.51875000e+01	Si
atom  9.43123000e+00 1.24468000e+01 3.80007000e+01	N
atom  5.27744000e+00 1.31194000e+01 3.78613000e+01	N
atom  6.39310000e+00 1.39109000e+01 3.52350000e+01	N
atom  5.95798000e+00 1.43446000e+01 3.68829000e+01	Si
atom  8.37461000e+00 1.35812000e+01 3.88212000e+01	Si
atom  7.45710000e+00 1.22066000e+01 3.94781000e+01	N
atom  1.46818000e+00 1.58761000e+01 1.17462000e+00	N
atom  3.93935000e+00 1.53987000e+01 2.67167000e+00	Si
atom  1.53262000e+00 1.50191000e+01 4.38027000e+00	Si
atom  2.76941000e+00 1.61321000e+01 3.78766000e+00	N
atom  3.02423000e-01 1.63336000e+01 4.38696000e+00	N
atom  2.88671000e+00 1.63162000e+01 2.10460000e-01	Si
atom  4.27924000e+00 1.64711000e+01 1.27983000e+00	N
atom  7.01851000e+00 1.54969000e+01 3.30908000e+00	Si
atom  5.35543000e+00 1.50537000e+01 3.55397000e+00	N
atom  8.86211000e+00 1.48336000e+01 1.66214000e-01	N
atom  7.51087000e+00 1.57844000e+01 4.91303000e+00	N
atom  1.64560000e-01 1.62560000e+01 6.94802000e+00	N
atom  3.49613000e-01 1.45450000e+01 6.98428000e+00	Si
atom  4.35334000e+00 1.63389000e+01 8.70312000e+00	N
atom  4.22529000e-01 1.43857000e+01 8.72676000e+00	N
atom  4.50661000e+00 1.50361000e+01 6.27882000e+00	N
atom  8.87342000e+00 1.50661000e+01 5.63346000e+00	Si
atom  5.49514000e+00 1.54050000e+01 9.59262000e+00	Si
atom  4.62106000e+00 1.65950000e+01 7.01183000e+00	Si
atom  7.23676000e+00 1.55974000e+01 9.13959000e+00	N
atom  2.71082000e-01 1.57918000e+01 1.11433000e+01	N
atom  3.26010000e+00 1.58810000e+01 1.13025000e+01	Si
atom  2.45482000e+00 1.58825000e+01 1.27936000e+01	N
atom  9.28823000e-01 1.66015000e+01 1.26323000e+01	Si
atom  -2.32126000e-01 1.63955000e+01 1.39199000e+01	N
atom  2.67152000e+00 1.46878000e+01 1.02304000e+01	N
atom  9.86618000e-01 1.43824000e+01 1.03574000e+01	Si
atom  7.16037000e+00 1.48006000e+01 1.25416000e+01	N
atom  4.95805000e+00 1.57305000e+01 1.11941000e+01	N
atom  8.29934000e+00 1.60596000e+01 1.23782000e+01	Si
atom  5.52514000e+00 1.52338000e+01 1.27252000e+01	Si
atom  5.44339000e+00 1.64709000e+01 1.38012000e+01	N
atom  9.31139000e+00 1.60637000e+01 1.10238000e+01	N
atom  9.38159000e+00 1.58679000e+01 1.37574000e+01	N