lattice_vector  3.99099034e+01 0.00000000e+00 0.00000000e+00
lattice_vector  2.44377677e-15 3.99099034e+01 0.00000000e+00
lattice_vector  2.44377677e-15 2.44377677e-15 3.99099034e+01
atom  2.65081000e+00 3.03458000e+00 1.30433000e+00	Si
atom  3.33429000e+00 1.51069000e+00 9.18131000e-01	N
atom  3.64026000e+00 4.15181000e+00 2.16387000e+00	N
atom  -5.00057000e-01 3.35963000e+00 7.72976000e-01	N
atom  6.10309000e+00 4.20545000e+00 9.62801000e-01	N
atom  6.08587000e+00 1.25711000e+00 1.67041000e+00	N
atom  4.83716000e+00 5.28285000e+00 1.54672000e+00	Si
atom  6.19186000e+00 2.96766000e+00 2.16605000e+00	Si
atom  9.62634000e+00 2.06039000e+00 7.84768000e-01	N
atom  2.40958000e+00 8.51237000e+00 5.49010000e-01	N
atom  8.73513000e-01 6.39373000e+00 4.34121000e-01	N
atom  4.10387000e+00 6.33100000e+00 3.71538000e-01	N
atom  2.53090000e+00 6.90471000e+00 2.06992000e-02	Si
atom  8.05995000e-01 6.56391000e+00 2.15681000e+00	Si
atom  2.01184000e+00 1.00565000e+01 -1.91693000e-01	Si
atom  9.44285000e+00 7.27498000e+00 7.37783000e-01	N
atom  7.73372000e+00 7.45093000e+00 2.40988000e-01	Si
atom  7.96327000e+00 9.55059000e+00 2.00441000e+00	Si
atom  9.10284000e+00 1.02176000e+01 8.92049000e-01	N
atom  7.11625000e+00 8.06956000e+00 1.68165000e+00	N
atom  1.73454000e+00 1.68640000e+00 3.81893000e+00	Si
atom  3.79745000e+00 3.59840000e+00 3.87852000e+00	Si
atom  1.48273000e+00 2.89595000e+00 2.61817000e+00	N
atom  -1.49671000e-03 3.72587000e+00 2.41596000e+00	Si
atom  1.24062000e+00 2.55926000e-01 2.91525000e+00	N
atom  7.83885000e+00 3.29297000e+00 3.10145000e+00	N
atom  5.40722000e+00 3.00968000e+00 3.72643000e+00	N
atom  8.27333000e+00 4.93975000e+00 4.00517000e+00	Si
atom  8.74310000e+00 6.54304000e-01 2.78997000e+00	N
atom  9.18014000e+00 2.33076000e+00 2.42674000e+00	Si
atom  -9.52267000e-02 5.32489000e+00 2.95184000e+00	N
atom  2.44459000e+00 6.86833000e+00 2.69804000e+00	N
atom  3.60540000e+00 6.41064000e+00 3.93191000e+00	Si
atom  3.16392000e-01 9.64879000e+00 2.74665000e+00	Si
atom  1.98737000e+00 9.39679000e+00 3.31154000e+00	N
atom  4.53450000e+00 9.04370000e+00 2.35753000e+00	N
atom  -6.46299000e-02 8.05933000e+00 2.24755000e+00	N
atom  2.87912000e+00 8.49771000e+00 2.21440000e+00	Si
atom  8.67222000e+00 6.59638000e+00 3.49142000e+00	N
atom  5.07560000e+00 6.30051000e+00 2.99192000e+00	N
atom  8.12676000e+00 8.02609000e+00 4.51281000e+00	Si
atom  5.76877000e+00 7.92506000e+00 2.84455000e+00	Si
atom  8.75245000e+00 9.32637000e+00 3.47033000e+00	N
atom  3.58021000e+00 1.82222000e+00 6.34267000e+00	Si
atom  2.46882000e+00 4.26391000e+00 6.23427000e+00	Si
atom  8.00115000e-01 1.48037000e+00 6.59571000e+00	Si
atom  3.92042000e-01 1.31822000e+00 4.89667000e+00	N
atom  1.11902000e+00 3.19511000e+00 6.62306000e+00	N
atom  2.38568000e+00 8.39979000e-01 7.00070000e+00	N
atom  3.22869000e+00 4.95238000e+00 4.80038000e+00	N
atom  2.98972000e+00 2.25625000e+00 4.75170000e+00	N
atom  7.08056000e+00 4.59799000e+00 5.22320000e+00	N
atom  9.12204000e+00 1.83735000e+00 6.26239000e+00	Si
atom  7.60185000e+00 1.64070000e+00 5.37002000e+00	N
atom  5.06710000e+00 9.34484000e-01 6.24416000e+00	N
atom  6.87515000e+00 3.00433000e+00 4.59943000e+00	Si
atom  9.48530000e+00 4.70058000e+00 6.71418000e+00	Si
atom  6.71994000e+00 5.31095000e+00 6.81181000e+00	Si
atom  -8.64918000e-02 5.55279000e+00 5.68104000e+00	N
atom  1.11711000e+00 8.22093000e+00 5.75964000e+00	N
atom  9.10038000e-01 6.72707000e+00 6.55753000e+00	Si
atom  2.43475000e+00 8.95489000e+00 4.97723000e+00	Si
atom  3.76026000e+00 7.79267000e+00 4.93853000e+00	N
atom  5.67640000e+00 6.62011000e+00 6.59818000e+00	N
atom  5.29289000e+00 8.06776000e+00 5.78866000e+00	Si
atom  8.59832000e+00 8.44884000e+00 6.17409000e+00	N
atom  9.29385000e+00 1.00312000e+01 6.56432000e+00	Si
atom  6.45379000e+00 8.15994000e+00 4.41782000e+00	N
atom  -2.35366000e-01 5.10393000e-01 7.59590000e+00	N
atom  3.72149000e+00 3.40092000e+00 7.04175000e+00	N
atom  4.17202000e+00 5.22832000e+00 9.31176000e+00	N
atom  9.28843000e+00 4.35353000e-01 7.24417000e+00	N
atom  4.59850000e+00 3.77881000e+00 8.46942000e+00	Si
atom  6.26509000e+00 3.96110000e+00 7.90640000e+00	N
atom  7.48836000e+00 2.88664000e+00 8.37427000e+00	Si
atom  6.97946000e+00 1.22304000e+00 8.41277000e+00	N
atom  8.90049000e+00 3.15725000e+00 7.37636000e+00	N
atom  2.84026000e+00 6.31758000e+00 8.73074000e+00	Si
atom  2.20275000e+00 5.80409000e+00 7.17490000e+00	N
atom  3.29300000e+00 7.92293000e+00 9.14295000e+00	N
atom  -2.08978000e-01 7.34560000e+00 7.77188000e+00	N
atom  8.48513000e+00 7.50901000e+00 7.62748000e+00	Si
atom  8.30700000e+00 5.84527000e+00 7.33937000e+00	N
atom  6.67781000e+00 9.88767000e+00 7.80812000e+00	Si
atom  7.42946000e+00 8.46458000e+00 8.56530000e+00	N
atom  5.30785000e+00 9.47653000e+00 6.79933000e+00	N
atom  3.90890000e+00 3.00026000e+00 1.11480000e+01	Si
atom  1.08065000e+00 4.64371000e+00 1.07788000e+01	Si
atom  1.01477000e-01 3.28542000e+00 1.01947000e+01	N
atom  8.48700000e-03 2.00557000e+00 1.13360000e+01	Si
atom  2.42431000e+00 3.77808000e+00 1.13255000e+01	N
atom  4.48207000e+00 2.41111000e+00 9.55524000e+00	N
atom  7.74313000e+00 3.19600000e+00 1.01149000e+01	N
atom  8.15063000e+00 4.87260000e+00 1.03913000e+01	Si
atom  6.16963000e+00 8.91035000e-01 1.10805000e+01	N
atom  7.63096000e+00 1.78113000e+00 1.12045000e+01	Si
atom  8.93677000e+00 7.49314000e-01 1.08697000e+01	N
atom  5.61053000e+00 1.02923000e+00 9.47894000e+00	Si
atom  1.52113000e+00 6.01460000e+00 9.85036000e+00	N
atom  2.85939000e+00 9.65205000e+00 1.09754000e+01	N
atom  4.03988000e+00 8.31948000e+00 1.06759000e+01	Si
atom  5.05671000e-01 7.37239000e+00 1.03242000e+01	Si
atom  7.88728000e-01 9.14714000e+00 9.70012000e+00	N
atom  1.12918000e+00 9.60295000e+00 1.13221000e+01	Si
atom  3.96239000e+00 6.82425000e+00 1.15848000e+01	N
atom  2.39996000e+00 9.49766000e+00 9.17681000e+00	Si
atom  7.14863000e+00 7.71562000e+00 1.02065000e+01	Si
atom  6.73366000e+00 6.03632000e+00 1.02748000e+01	N
atom  5.07433000e+00 5.73567000e+00 1.08314000e+01	Si
atom  5.77649000e+00 8.61785000e+00 1.07382000e+01	N
atom  8.37580000e+00 7.71041000e+00 1.14165000e+01	N
atom  2.52843000e+00 1.11326000e+00 1.32982000e+01	Si
atom  9.16902000e-01 1.27529000e+00 1.26619000e+01	N
atom  3.79593000e+00 1.59961000e+00 1.22186000e+01	N
atom  -3.59498000e-02 5.29788000e+00 1.20925000e+01	N
atom  5.73657000e+00 5.88064000e-01 1.36235000e+01	N
atom  7.80804000e+00 2.44139000e+00 1.28377000e+01	N
atom  9.09109000e+00 3.62600000e+00 1.29915000e+01	Si
atom  5.20647000e+00 4.83863000e+00 1.34568000e+01	Si
atom  8.45569000e+00 4.93492000e+00 1.21153000e+01	N
atom  4.97134000e+00 4.29767000e+00 1.18433000e+01	N
atom  2.47099000e-01 6.73341000e+00 1.31375000e+01	Si
atom  3.34775000e+00 7.00340000e+00 1.30968000e+01	Si
atom  1.80750000e+00 6.87667000e+00 1.39262000e+01	N
atom  6.56028000e-01 8.03070000e+00 1.18933000e+01	N
atom  9.38641000e+00 9.69881000e+00 1.31404000e+01	N
atom  8.84606000e+00 7.06939000e+00 1.40077000e+01	N
atom  6.80937000e+00 9.06539000e+00 1.35348000e+01	N
atom  6.26589000e+00 6.29042000e+00 1.31995000e+01	N
atom  7.91031000e+00 6.43085000e+00 1.26374000e+01	Si
atom  2.32657000e+00 1.72821000e+00 1.49064000e+01	N
atom  1.86053000e+00 4.33461000e+00 1.59104000e+01	N
atom  9.81976000e-01 1.06767000e+00 1.60181000e+01	Si
atom  -2.40890000e-01 2.03808000e+00 1.52606000e+01	N
atom  2.29311000e-01 4.80879000e+00 1.63134000e+01	Si
atom  2.71577000e+00 2.82835000e+00 1.62306000e+01	Si
atom  9.58433000e+00 4.38015000e+00 1.44342000e+01	N
atom  7.07329000e+00 2.46619000e+00 1.63709000e+01	N
atom  5.54158000e+00 3.46066000e+00 1.44176000e+01	N
atom  5.59439000e+00 3.36034000e+00 1.61791000e+01	Si
atom  6.51323000e+00 2.07558000e+00 1.38953000e+01	Si
atom  2.44228000e+00 5.77964000e+00 1.51152000e+01	Si
atom  3.78223000e+00 9.75380000e+00 1.47619000e+01	Si
atom  2.61662000e+00 9.56621000e+00 1.60500000e+01	N
atom  3.87496000e+00 5.59405000e+00 1.41813000e+01	N
atom  -2.35318000e-01 5.43464000e+00 1.47264000e+01	N
atom  4.18041000e+00 8.32792000e+00 1.38487000e+01	N
atom  8.42435000e+00 8.73773000e+00 1.41869000e+01	Si
atom  8.15491000e+00 9.16927000e+00 1.58098000e+01	N
atom  5.93854000e+00 7.39211000e+00 1.57700000e+01	N
atom  5.82363000e+00 7.74630000e+00 1.41235000e+01	Si
atom  1.70532000e+00 1.90608000e+00 1.73153000e+01	N
atom  4.29609000e+00 2.35757000e+00 1.68136000e+01	N
atom  4.50212000e+00 6.58774000e-01 1.73718000e+01	Si
atom  8.55648000e+00 2.97213000e+00 1.73002000e+01	Si
atom  5.64964000e+00 4.91351000e+00 1.68096000e+01	N
atom  7.38138000e+00 8.38621000e-01 1.69089000e+01	Si
atom  8.64870000e+00 1.33683000e+00 1.80415000e+01	N
atom  7.82912000e+00 4.15956000e+00 1.84060000e+01	N
atom  6.13823000e+00 3.57717000e-01 1.79297000e+01	N
atom  6.47208000e+00 5.37768000e+00 1.82527000e+01	Si
atom  3.17070000e+00 6.50166000e+00 1.65836000e+01	N
atom  4.71995000e-01 6.04698000e+00 1.74408000e+01	N
atom  2.08347000e+00 6.30806000e+00 1.79484000e+01	Si
atom  2.51476000e+00 9.27910000e+00 1.77002000e+01	Si
atom  -2.59983000e-01 1.00029000e+01 1.72826000e+01	Si
atom  4.09948000e+00 9.72410000e+00 1.83884000e+01	N
atom  6.80982000e+00 9.13304000e+00 1.80698000e+01	N
atom  7.29552000e+00 8.00674000e+00 1.68047000e+01	Si
atom  9.16311000e+00 5.45103000e+00 1.77651000e+01	Si
atom  4.87711000e+00 6.38115000e+00 1.66495000e+01	Si
atom  7.71130000e+00 6.50558000e+00 1.77248000e+01	N
atom  5.06594000e+00 6.85849000e+00 1.83593000e+01	N
atom  2.38824000e+00 2.33536000e+00 2.00725000e+01	N
atom  1.75690000e+00 3.98674000e+00 2.00879000e+01	Si
atom  1.18889000e-01 3.91732000e+00 1.96906000e+01	N
atom  2.68961000e+00 5.10361000e+00 1.90050000e+01	N
atom  1.99120000e+00 1.18352000e+00 1.88373000e+01	Si
atom  5.69501000e+00 4.65906000e+00 1.96623000e+01	N
atom  7.16822000e+00 3.81777000e+00 2.00164000e+01	Si
atom  8.70551000e+00 1.06139000e+00 1.97375000e+01	Si
atom  7.82630000e+00 2.25603000e+00 2.05571000e+01	N
atom  4.19687000e+00 5.77212000e+00 1.95274000e+01	Si
atom  1.08243000e+00 8.45389000e+00 2.01268000e+01	Si
atom  1.72197000e+00 9.84264000e+00 2.08554000e+01	N
atom  2.00535000e+00 7.93707000e+00 1.86404000e+01	N
atom  8.13987000e+00 1.01348000e+01 2.01484000e+01	N
atom  5.79594000e+00 8.50895000e+00 2.04665000e+01	N
atom  5.30246000e+00 8.52096000e+00 1.88199000e+01	Si
atom  1.94849000e+00 4.60241000e+00 2.16889000e+01	N
atom  1.97304000e+00 1.85260000e+00 2.27740000e+01	N
atom  2.95254000e+00 1.46010000e+00 2.14204000e+01	Si
atom  2.21466000e+00 3.57147000e+00 2.30921000e+01	Si
atom  9.75740000e-01 4.53810000e-01 2.30787000e+01	Si
atom  4.55607000e+00 1.67620000e+00 2.20601000e+01	N
atom  7.76838000e+00 2.15092000e+00 2.22455000e+01	Si
atom  7.10569000e+00 6.59443000e-01 2.26818000e+01	N
atom  6.61235000e+00 3.38833000e+00 2.27833000e+01	N
atom  8.11390000e+00 4.83187000e+00 2.11520000e+01	N
atom  7.13241000e+00 5.05420000e+00 2.27065000e+01	Si
atom  9.33815000e+00 2.55936000e+00 2.30391000e+01	N
atom  1.07033000e+00 7.35051000e+00 2.14349000e+01	N
atom  1.71432000e-01 8.19259000e+00 2.26882000e+01	Si
atom  2.32541000e+00 6.28368000e+00 2.19083000e+01	Si
atom  4.38333000e+00 8.70638000e+00 2.29978000e+01	N
atom  3.81706000e+00 6.64086000e+00 2.09953000e+01	N
atom  6.96286000e+00 8.65656000e+00 2.26959000e+01	N
atom  5.11984000e+00 7.49610000e+00 2.17612000e+01	Si
atom  5.70103000e+00 6.09626000e+00 2.27210000e+01	N
atom  6.90266000e+00 9.60585000e+00 2.11864000e+01	Si
atom  1.21349000e+00 3.83911000e+00 2.44362000e+01	N
atom  3.90023000e+00 3.88035000e+00 2.34842000e+01	N
atom  -3.60711000e-01 4.46018000e+00 2.48236000e+01	Si
atom  -3.02723000e-01 1.00414000e+00 2.40826000e+01	N
atom  8.93546000e+00 5.34906000e-01 2.48765000e+01	N
atom  8.06805000e+00 3.34162000e+00 2.53570000e+01	N
atom  5.43509000e+00 1.92132000e+00 2.48664000e+01	N
atom  8.51652000e+00 5.04407000e+00 2.53531000e+01	Si
atom  9.25782000e+00 2.23794000e+00 2.47566000e+01	Si
atom  5.11283000e+00 2.66353000e+00 2.33202000e+01	Si
atom  3.05171000e+00 8.15523000e+00 2.39083000e+01	Si
atom  4.35283000e+00 5.60082000e+00 2.38101000e+01	Si
atom  2.95044000e+00 6.52692000e+00 2.34907000e+01	N
atom  3.30312000e+00 8.49653000e+00 2.55450000e+01	N
atom  1.67343000e+00 9.04201000e+00 2.33765000e+01	N
atom  5.75957000e+00 9.44234000e+00 2.37584000e+01	Si
atom  6.36749000e+00 8.34873000e+00 2.51182000e+01	N
atom  7.91286000e+00 5.80796000e+00 2.39865000e+01	N
atom  9.19306000e+00 8.00432000e+00 2.41661000e+01	N
atom  7.51290000e+00 7.53020000e+00 2.40169000e+01	Si
atom  4.79190000e+00 6.13161000e+00 2.54667000e+01	N
atom  5.85994000e-01 3.43156000e+00 2.73221000e+01	N
atom  3.03076000e+00 4.25928000e+00 2.65463000e+01	N
atom  1.80359000e+00 3.30356000e+00 2.59396000e+01	Si
atom  2.18884000e+00 1.71373000e+00 2.63784000e+01	N
atom  -3.10896000e-02 5.00353000e+00 2.77717000e+01	Si
atom  3.06310000e-02 1.01187000e+00 2.78893000e+01	N
atom  4.65783000e+00 4.96505000e+00 2.67515000e+01	Si
atom  6.90354000e+00 1.15601000e+00 2.67135000e+01	N
atom  6.08886000e+00 4.06242000e+00 2.70223000e+01	N
atom  6.58420000e+00 2.74256000e+00 2.59784000e+01	Si
atom  8.21257000e+00 6.19811000e-01 2.76686000e+01	Si
atom  5.70192000e+00 4.22518000e-01 2.57144000e+01	Si
atom  6.32063000e-01 8.30438000e+00 2.68374000e+01	N
atom  2.00471000e+00 9.23181000e+00 2.64217000e+01	Si
atom  -1.87062000e-01 5.59145000e+00 2.60939000e+01	N
atom  -1.90560000e-01 7.22203000e+00 2.58146000e+01	Si
atom  2.48332000e+00 1.01865000e+01 2.78802000e+01	N
atom  5.23992000e+00 7.75717000e+00 2.76617000e+01	N
atom  4.87996000e+00 7.76737000e+00 2.59279000e+01	Si
atom  7.05408000e+00 9.82127000e+00 2.58109000e+01	Si
atom  8.84279000e+00 6.98352000e+00 2.79738000e+01	Si
atom  9.28936000e+00 9.55613000e+00 2.75594000e+01	Si
atom  8.27375000e+00 5.79384000e+00 2.68934000e+01	N
atom  7.86698000e+00 8.52362000e+00 2.80028000e+01	N
atom  2.57007000e+00 2.90669000e+00 2.90165000e+01	N
atom  2.61684000e+00 4.50283000e+00 2.82945000e+01	Si
atom  2.56722000e+00 3.34823000e-01 2.84340000e+01	N
atom  1.60193000e+00 1.77498000e+00 2.81052000e+01	Si
atom  8.08395000e+00 3.80390000e+00 2.91696000e+01	N
atom  7.94258000e+00 1.00224000e+00 2.93013000e+01	N
atom  7.27454000e+00 2.37125000e+00 3.00702000e+01	Si
atom  9.20077000e+00 4.69469000e+00 3.02663000e+01	Si
atom  7.28098000e+00 4.80206000e+00 2.80492000e+01	Si
atom  4.13159000e+00 5.36851000e+00 2.84706000e+01	N
atom  1.35805000e+00 5.65743000e+00 2.86899000e+01	N
atom  2.18596000e+00 1.00035000e+01 2.95674000e+01	Si
atom  1.52426000e+00 8.34108000e+00 3.00884000e+01	N
atom  1.48295000e+00 6.61308000e+00 3.01737000e+01	Si
atom  5.07435000e+00 6.71571000e+00 2.90166000e+01	Si
atom  6.28981000e+00 9.79692000e+00 2.98103000e+01	N
atom  6.62507000e+00 5.99862000e+00 2.91984000e+01	N
atom  6.27172000e+00 9.10476000e+00 2.82078000e+01	Si
atom  3.08100000e+00 3.42033000e+00 3.16001000e+01	N
atom  3.34034000e+00 7.71167000e-01 3.10486000e+01	N
atom  8.82703000e-01 1.46119000e+00 3.07506000e+01	N
atom  2.43307000e+00 2.17227000e+00 3.05883000e+01	Si
atom  7.71137000e-02 5.71972000e-01 3.19956000e+01	Si
atom  2.27565000e+00 4.58719000e+00 3.24953000e+01	Si
atom  5.27364000e+00 2.60119000e-01 3.23766000e+01	N
atom  4.85778000e+00 3.55608000e+00 3.14702000e+01	Si
atom  5.15762000e+00 7.25531000e-01 3.06941000e+01	Si
atom  7.97143000e+00 2.45105000e+00 3.17304000e+01	N
atom  5.34797000e+00 5.18450000e+00 3.14809000e+01	N
atom  5.60299000e+00 2.35301000e+00 3.03055000e+01	N
atom  8.31045000e+00 5.31510000e+00 3.16693000e+01	N
atom  2.51421000e+00 6.04357000e+00 3.14696000e+01	N
atom  4.19315000e+00 6.48873000e+00 3.17977000e+01	Si
atom  -1.08266000e-01 6.50595000e+00 3.09047000e+01	N
atom  -1.72931000e-01 8.23488000e+00 3.05577000e+01	Si
atom  7.19003000e+00 7.71612000e+00 3.13515000e+01	N
atom  5.84835000e+00 8.74375000e+00 3.10646000e+01	Si
atom  8.68546000e+00 7.89169000e+00 3.22220000e+01	Si
atom  4.71132000e+00 7.49316000e+00 3.05239000e+01	N
atom  5.20572000e+00 9.53556000e+00 3.24152000e+01	N
atom  6.84688000e+00 6.01584000e+00 3.10094000e+01	Si
atom  3.18886000e+00 1.69711000e+00 3.39489000e+01	N
atom  3.27734000e+00 4.62739000e+00 3.40010000e+01	N
atom  4.12721000e+00 3.17183000e+00 3.42834000e+01	Si
atom  1.60054000e+00 1.60373000e+00 3.45965000e+01	Si
atom  9.86594000e-01 4.31631000e-01 3.34900000e+01	N
atom  3.50056000e+00 4.66534000e-01 3.27748000e+01	Si
atom  4.90993000e-01 2.91870000e+00 3.50706000e+01	N
atom  -3.70952000e-01 4.13469000e+00 3.41763000e+01	Si
atom  6.70709000e-01 4.27401000e+00 3.28894000e+01	N
atom  7.13627000e+00 2.88581000e+00 3.31252000e+01	Si
atom  7.35495000e+00 1.31081000e+00 3.39272000e+01	N
atom  7.97809000e+00 4.03255000e+00 3.41140000e+01	N
atom  5.40071000e+00 3.14281000e+00 3.30669000e+01	N
atom  8.91025000e+00 1.22971000e+00 3.46947000e+01	Si
atom  4.13860000e+00 7.12410000e+00 3.34645000e+01	N
atom  2.97260000e+00 9.30565000e+00 3.44060000e+01	N
atom  1.97567000e-01 8.12331000e+00 3.42689000e+01	N
atom  3.57202000e+00 6.12935000e+00 3.48148000e+01	Si
atom  -3.27657000e-01 9.52689000e+00 3.34949000e+01	Si
atom  4.53144000e+00 8.85495000e+00 3.37942000e+01	Si
atom  8.78990000e+00 5.40743000e+00 3.33816000e+01	Si
atom  8.57550000e+00 7.04461000e+00 3.36931000e+01	N
atom  8.81898000e+00 9.58388000e+00 3.26277000e+01	N
atom  1.88303000e+00 1.36823000e+00 3.63367000e+01	N
atom  1.07890000e+00 2.89782000e+00 3.67152000e+01	Si
atom  2.18495000e+00 4.16921000e+00 3.70685000e+01	N
atom  4.75610000e+00 1.53229000e+00 3.67327000e+01	Si
atom  4.88818000e+00 3.04518000e+00 3.58665000e+01	N
atom  8.36438000e+00 3.78915000e+00 3.58575000e+01	Si
atom  8.66474000e+00 2.14083000e+00 3.62007000e+01	N
atom  5.41736000e+00 4.47302000e+00 3.65822000e+01	Si
atom  7.14658000e+00 4.60743000e+00 3.67944000e+01	N
atom  1.18172000e+00 9.43092000e+00 3.64541000e+01	N
atom  2.17662000e+00 6.76116000e+00 3.55499000e+01	N
atom  1.51182000e+00 6.01203000e+00 3.70206000e+01	Si
atom  -1.51788000e-01 5.34953000e+00 3.55271000e+01	N
atom  1.69703000e+00 8.35266000e+00 3.51257000e+01	Si
atom  8.69174000e+00 7.86013000e+00 3.52081000e+01	Si
atom  4.82405000e+00 6.01631000e+00 3.60521000e+01	N
atom  7.40514000e+00 7.21484000e+00 3.62636000e+01	N
atom  5.73723000e+00 7.52550000e+00 3.63336000e+01	Si
atom  6.62993000e+00 1.01257000e+01 3.56720000e+01	Si
atom  8.24283000e+00 9.52240000e+00 3.52337000e+01	N
atom  5.54517000e+00 8.83986000e+00 3.52105000e+01	N
atom  3.85191000e+00 2.03853000e+00 3.81645000e+01	N
atom  3.36123000e+00 7.76617000e-01 3.91855000e+01	Si
atom  3.28779000e+00 3.66006000e+00 3.82959000e+01	Si
atom  4.23474000e-01 3.47544000e+00 3.92742000e+01	Si
atom  1.12726000e-01 2.32523000e+00 3.80232000e+01	N
atom  -5.21412000e-02 4.86955000e+00 3.83458000e+01	N
atom  2.13542000e+00 3.59888000e+00 3.96709000e+01	N
atom  4.96210000e+00 4.55604000e+00 3.82879000e+01	N
atom  8.00809000e+00 3.25597000e+00 3.87512000e+01	N
atom  7.94591000e+00 1.75248000e+00 3.77117000e+01	Si
atom  8.92623000e+00 5.40333000e-01 3.85395000e+01	N
atom  6.56290000e+00 4.33476000e+00 3.91611000e+01	Si
atom  6.38283000e+00 1.12215000e+00 3.72807000e+01	N
atom  9.70216000e+00 3.25582000e+00 3.94200000e+01	Si
atom  -3.41517000e-01 6.42946000e+00 3.90720000e+01	Si
atom  2.69781000e+00 6.50154000e+00 3.82298000e+01	N
atom  3.34939000e-01 9.70753000e+00 3.91997000e+01	N
atom  -2.27335000e-03 8.99534000e+00 3.76256000e+01	Si
atom  2.71514000e-01 7.26419000e+00 3.76457000e+01	N
atom  4.50886000e+00 6.25549000e+00 3.85249000e+01	Si
atom  6.06813000e+00 9.24350000e+00 3.84719000e+01	Si
atom  7.82016000e+00 6.03226000e+00 3.74877000e+01	Si
atom  7.12751000e+00 6.01920000e+00 3.91681000e+01	N
atom  8.63384000e+00 1.01099000e+01 3.91985000e+01	Si
atom  7.60317000e+00 8.71994000e+00 3.90785000e+01	N
atom  5.32598000e+00 7.76653000e+00 3.79798000e+01	N
atom  9.45655000e+00 6.19529000e+00 3.80066000e+01	N
atom  5.20942000e+00 1.00828000e+01 3.97017000e+01	N
atom  3.26143000e-01 1.09396000e+01 1.68231000e+00	N
atom  3.58133000e+00 1.39561000e+01 6.79508000e-01	N
atom  6.00038000e-01 1.37225000e+01 1.08669000e+00	N
atom  3.03186000e+00 1.11956000e+01 6.37921000e-01	N
atom  3.40751000e+00 1.25287000e+01 1.68016000e+00	Si
atom  1.33389000e-01 1.49693000e+01 -1.50068000e-01	Si
atom  5.32883000e+00 1.03990000e+01 1.51862000e+00	Si
atom  5.13036000e+00 1.22847000e+01 1.67331000e+00	N
atom  6.57914000e+00 1.43780000e+01 5.60388000e-01	N
atom  5.20476000e+00 1.34256000e+01 2.95635000e-01	Si
atom  7.11696000e+00 1.49711000e+01 2.06129000e+00	Si
atom  2.71826000e+00 1.55157000e+01 7.15567000e-01	Si
atom  3.98429000e+00 1.66012000e+01 8.23732000e-02	N
atom  8.65708000e+00 1.56992000e+01 1.74641000e+00	N
atom  8.18843000e+00 1.78362000e+01 6.40727000e-01	Si
atom  6.70289000e+00 1.70387000e+01 2.75674000e-01	N
atom  5.24486000e+00 1.71201000e+01 1.12740000e+00	Si
atom  2.37355000e+00 1.24011000e+01 3.02222000e+00	N
atom  7.70275000e-01 1.24510000e+01 2.20617000e+00	Si
atom  7.36504000e+00 1.36020000e+01 3.14224000e+00	N
atom  6.27338000e+00 1.22770000e+01 3.03341000e+00	Si
atom  8.35383000e+00 1.42220000e+01 4.39409000e+00	Si
atom  6.76590000e+00 1.06555000e+01 2.48087000e+00	N
atom  3.61404000e+00 1.96233000e+01 2.60063000e+00	Si
atom  1.23198000e+00 1.76601000e+01 3.88052000e+00	N
atom  2.03343000e+00 1.61837000e+01 4.03479000e+00	Si
atom  6.98030000e-01 1.91317000e+01 3.31148000e+00	Si
atom  1.78442000e+00 1.99327000e+01 2.29977000e+00	N
atom  3.55927000e+00 1.98460000e+01 4.32556000e+00	N
atom  2.35445000e+00 1.58739000e+01 2.30880000e+00	N
atom  6.91543000e+00 2.01218000e+01 3.47535000e+00	N
atom  4.45419000e+00 1.81802000e+01 2.31031000e+00	N
atom  4.83250000e+00 1.70730000e+01 3.58513000e+00	Si
atom  8.48849000e+00 1.82116000e+01 2.30665000e+00	N
atom  8.37754000e+00 1.59617000e+01 4.38030000e+00	N
atom  8.52751000e+00 1.98799000e+01 2.84919000e+00	Si
atom  9.15756000e+00 1.67654000e+01 3.06647000e+00	Si
atom  5.74517000e+00 1.60172000e+01 2.53322000e+00	N
atom  9.45141000e-01 1.18040000e+01 5.75114000e+00	N
atom  3.07430000e+00 1.35050000e+01 5.44793000e+00	N
atom  2.02284000e+00 1.45231000e+01 6.36811000e+00	Si
atom  3.17621000e+00 1.05763000e+01 5.36263000e+00	N
atom  2.42385000e+00 1.20202000e+01 4.74343000e+00	Si
atom  4.77398000e+00 1.33427000e+01 5.79940000e+00	Si
atom  5.45691000e+00 1.49175000e+01 6.14502000e+00	N
atom  8.17809000e+00 1.37670000e+01 6.06526000e+00	N
atom  5.45752000e+00 1.23604000e+01 4.48755000e+00	N
atom  7.70242000e-01 2.00466000e+01 4.80506000e+00	N
atom  1.03770000e+00 1.54236000e+01 5.26126000e+00	N
atom  3.66047000e+00 1.64137000e+01 4.63760000e+00	N
atom  4.45142000e+00 1.63434000e+01 6.14815000e+00	Si
atom  6.57442000e+00 1.92922000e+01 5.04471000e+00	Si
atom  7.51523000e+00 1.70203000e+01 5.43193000e+00	Si
atom  8.08880000e+00 1.87052000e+01 5.50731000e+00	N
atom  6.03301000e+00 1.76257000e+01 4.70494000e+00	N
atom  1.60258000e+00 1.34750000e+01 7.69837000e+00	N
atom  1.37262000e+00 1.17937000e+01 7.43534000e+00	Si
atom  2.55189000e+00 1.06649000e+01 7.91239000e+00	N
atom  2.22430000e-02 1.13963000e+01 8.43575000e+00	N
atom  1.27470000e+00 1.43711000e+01 9.12310000e+00	Si
atom  4.05661000e+00 1.07084000e+01 6.80876000e+00	Si
atom  4.65384000e+00 1.22990000e+01 7.18330000e+00	N
atom  5.53985000e+00 1.25134000e+01 8.71262000e+00	Si
atom  6.84272000e+00 1.36029000e+01 8.20269000e+00	N
atom  8.18402000e+00 1.26073000e+01 7.60658000e+00	Si
atom  5.68037000e+00 1.07788000e+01 9.14708000e+00	N
atom  7.87784000e+00 1.08968000e+01 7.10808000e+00	N
atom  9.17002000e+00 1.23910000e+01 9.12578000e+00	N
atom  6.96774000e+00 1.47456000e+01 6.97271000e+00	Si
atom  -3.96894000e-01 1.70415000e+01 9.18415000e+00	Si
atom  8.57340000e-02 1.98836000e+01 8.69749000e+00	Si
atom  3.95556000e+00 1.87527000e+01 7.98144000e+00	Si
atom  3.65838000e+00 1.59877000e+01 8.70157000e+00	Si
atom  3.78276000e-01 1.56766000e+01 8.55873000e+00	N
atom  3.05785000e+00 1.57439000e+01 7.15446000e+00	N
atom  2.86389000e+00 1.94578000e+01 6.81476000e+00	N
atom  4.98251000e+00 1.75148000e+01 7.29389000e+00	N
atom  4.85070000e+00 2.00604000e+01 8.80042000e+00	N
atom  7.31524000e+00 1.64065000e+01 7.03007000e+00	N
atom  9.46978000e+00 1.95921000e+01 8.35121000e+00	Si
atom  9.27929000e+00 1.61981000e+01 8.62739000e+00	Si
atom  6.38829000e+00 1.69601000e+01 8.47211000e+00	Si
atom  5.33031000e+00 1.56982000e+01 9.08649000e+00	N
atom  4.52939000e-01 1.34579000e+01 1.03420000e+01	N
atom  3.69682000e+00 1.38591000e+01 1.09183000e+01	Si
atom  2.88393000e+00 1.47598000e+01 9.71735000e+00	N
atom  2.86826000e+00 1.24017000e+01 1.13067000e+01	N
atom  5.25807000e+00 1.32883000e+01 1.02801000e+01	N
atom  8.64360000e+00 1.24791000e+01 1.07136000e+01	Si
atom  6.56296000e+00 1.46269000e+01 9.76368000e+00	Si
atom  7.64319000e+00 1.37838000e+01 1.10932000e+01	N
atom  7.39525000e+00 1.13170000e+01 1.10214000e+01	N
atom  6.06281000e+00 1.03468000e+01 1.07933000e+01	Si
atom  2.19944000e+00 1.83936000e+01 1.03126000e+01	Si
atom  2.78071000e+00 2.00244000e+01 1.04986000e+01	N
atom  6.77816000e-01 1.83957000e+01 9.47613000e+00	N
atom  3.24461000e+00 1.75525000e+01 9.25836000e+00	N
atom  6.69006000e+00 1.81831000e+01 9.72047000e+00	N
atom  7.78489000e+00 1.60034000e+01 9.49562000e+00	N
atom  7.55936000e+00 1.71111000e+01 1.09048000e+01	Si
atom  6.50013000e+00 1.97856000e+01 9.23024000e+00	Si
atom  1.24131000e+00 1.36349000e+01 1.30241000e+01	N
atom  3.56275000e+00 1.50085000e+01 1.22987000e+01	N
atom  3.38503000e+00 1.09395000e+01 1.20594000e+01	Si
atom  2.68376000e+00 1.07406000e+01 1.36842000e+01	N
atom  2.40139000e+00 1.48191000e+01 1.35412000e+01	Si
atom  4.28810000e-01 1.10979000e+01 1.17041000e+01	N
atom  -2.55258000e-01 1.40370000e+01 1.37722000e+01	Si
atom  1.18347000e+00 1.26072000e+01 1.16531000e+01	Si
atom  9.07320000e+00 1.14327000e+01 1.32978000e+01	Si
atom  5.82703000e+00 1.37441000e+01 1.29859000e+01	N
atom  5.17103000e+00 1.10261000e+01 1.21627000e+01	N
atom  7.74532000e+00 1.50266000e+01 1.22978000e+01	Si
atom  6.18877000e+00 1.06901000e+01 1.36225000e+01	Si
atom  7.42041000e+00 1.18131000e+01 1.37494000e+01	N
atom  8.10723000e+00 1.46629000e+01 1.39233000e+01	N
atom  6.25225000e+00 1.26642000e+01 1.16962000e+01	Si
atom  2.12338000e+00 1.80719000e+01 1.20663000e+01	N
atom  3.09664000e+00 1.93622000e+01 1.27521000e+01	Si
atom  8.68069000e-01 1.76857000e+01 1.32032000e+01	Si
atom  1.31551000e+00 1.61522000e+01 1.38213000e+01	N
atom  9.07306000e+00 1.77655000e+01 1.30933000e+01	Si
atom  6.37666000e+00 1.59403000e+01 1.16907000e+01	N
atom  8.88437000e+00 1.62575000e+01 1.19656000e+01	N
atom  4.89564000e+00 1.91495000e+01 1.24366000e+01	N
atom  5.15143000e+00 1.53824000e+01 1.28609000e+01	Si
atom  6.56999000e+00 1.97077000e+01 1.21421000e+01	Si
atom  7.66820000e+00 1.84251000e+01 1.21693000e+01	N
atom  3.39155000e+00 1.46070000e+01 1.50988000e+01	N
atom  1.12262000e-01 1.44182000e+01 1.54796000e+01	N
atom  1.73046000e+00 1.08539000e+01 1.52666000e+01	Si
atom  1.96857000e+00 1.24238000e+01 1.59203000e+01	N
atom  1.07490000e-02 1.06385000e+01 1.56207000e+01	N
atom  6.07014000e+00 1.37465000e+01 1.57793000e+01	N
atom  5.06076000e+00 1.09087000e+01 1.49881000e+01	N
atom  6.93156000e+00 1.34111000e+01 1.42883000e+01	Si
atom  9.38903000e+00 1.51538000e+01 1.49046000e+01	Si
atom  8.54323000e+00 1.08674000e+01 1.61823000e+01	Si
atom  5.62964000e+00 1.19979000e+01 1.63406000e+01	Si
atom  2.35204000e+00 1.87899000e+01 1.58164000e+01	Si
atom  5.84707000e-01 1.60998000e+01 1.54182000e+01	Si
atom  3.41374000e+00 1.87963000e+01 1.44111000e+01	N
atom  7.13527000e-01 1.87518000e+01 1.45140000e+01	N
atom  6.43701000e+00 1.88190000e+01 1.49704000e+01	N
atom  6.38466000e+00 1.62882000e+01 1.61252000e+01	N
atom  4.76791000e+00 1.55927000e+01 1.56353000e+01	Si
atom  5.08124000e+00 1.82635000e+01 1.40462000e+01	Si
atom  9.20530000e+00 1.93750000e+01 1.41518000e+01	N
atom  4.96715000e+00 1.65818000e+01 1.40594000e+01	N
atom  7.63697000e+00 2.00210000e+01 1.46646000e+01	Si
atom  1.85580000e+00 1.40984000e+01 1.77687000e+01	N
atom  6.12037000e-01 1.32817000e+01 1.66424000e+01	Si
atom  3.10631000e+00 1.35572000e+01 1.65627000e+01	Si
atom  4.29640000e+00 1.24729000e+01 1.73377000e+01	N
atom  1.17581000e+00 1.03553000e+01 1.81699000e+01	N
atom  7.10491000e+00 1.14696000e+01 1.68915000e+01	N
atom  7.11332000e+00 1.48148000e+01 1.67756000e+01	Si
atom  6.58696000e+00 1.50643000e+01 1.84575000e+01	N
atom  8.82724000e+00 1.48749000e+01 1.65240000e+01	N
atom  7.40671000e+00 1.07503000e+01 1.85753000e+01	Si
atom  9.49701000e+00 1.06351000e+01 1.76980000e+01	N
atom  2.82614000e+00 1.70639000e+01 1.76354000e+01	Si
atom  3.32006000e+00 1.87787000e+01 1.72597000e+01	N
atom  4.11442000e+00 1.59468000e+01 1.72000000e+01	N
atom  1.74362000e+00 1.71650000e+01 1.62841000e+01	N
atom  5.78045000e+00 1.80289000e+01 1.81141000e+01	N
atom  8.09543000e+00 1.84544000e+01 1.72279000e+01	N
atom  4.58014000e+00 1.93279000e+01 1.83127000e+01	Si
atom  6.63749000e+00 1.79368000e+01 1.64928000e+01	Si
atom  5.35952000e+00 1.63165000e+01 1.84423000e+01	Si
atom  1.52644000e+00 1.11488000e+01 1.96735000e+01	Si
atom  3.09548000e+00 1.18496000e+01 1.97050000e+01	N
atom  -3.54155000e-02 1.48172000e+01 1.97830000e+01	N
atom  2.86067000e-01 1.21352000e+01 2.04690000e+01	N
atom  1.68297000e+00 1.48820000e+01 1.93408000e+01	Si
atom  2.68587000e+00 1.44623000e+01 2.06913000e+01	N
atom  4.46053000e+00 1.14626000e+01 1.87571000e+01	Si
atom  6.06455000e+00 1.16751000e+01 1.93344000e+01	N
atom  6.35645000e+00 1.26265000e+01 2.09057000e+01	Si
atom  7.76886000e+00 1.51766000e+01 1.97285000e+01	Si
atom  7.48927000e+00 1.39697000e+01 2.09202000e+01	N
atom  1.94148000e+00 1.65822000e+01 1.89954000e+01	N
atom  9.55716000e-01 1.91547000e+01 1.96786000e+01	N
atom  7.13173000e-01 1.74291000e+01 1.99467000e+01	Si
atom  3.88178000e+00 1.89773000e+01 1.98796000e+01	N
atom  2.39905000e+00 1.95287000e+01 2.05489000e+01	Si
atom  9.40349000e+00 1.53630000e+01 1.91315000e+01	N
atom  4.60294000e+00 1.64130000e+01 2.00407000e+01	N
atom  8.81032000e+00 1.97608000e+01 2.03495000e+01	Si