lattice_vector  3.99031791e+01 0.00000000e+00 0.00000000e+00
lattice_vector  2.44336503e-15 3.99031791e+01 0.00000000e+00
lattice_vector  2.44336503e-15 2.44336503e-15 3.99031791e+01
atom  9.65390000e-01 3.43591000e+00 1.84465000e+00	Si
atom  1.28964000e+00 1.74272000e+00 1.30809000e+00	N
atom  9.17978000e-02 8.43171000e-01 4.50396000e-01	Si
atom  5.98494000e-01 3.80323000e+00 1.58706000e-01	N
atom  1.86825000e+00 2.16012000e+00 4.18850000e+00	N
atom  -3.71669000e-01 3.53068000e+00 2.93402000e+00	N
atom  -3.28511000e-01 6.99561000e-01 3.85591000e+00	N
atom  -3.57794000e-01 5.22124000e+00 -1.45541000e-01	Si
atom  2.07107000e-01 8.05424000e+00 4.29224000e+00	N
atom  8.28648000e-01 8.15195000e+00 2.59598000e+00	Si
atom  4.17829000e-01 9.66653000e+00 3.27692000e-01	Si
atom  -4.11526000e-01 8.57962000e+00 1.46284000e+00	N
atom  -2.72584000e-01 9.66914000e+00 4.89783000e+00	Si
atom  1.72788000e+00 6.98053000e+00 1.59810000e+00	N
atom  9.88450000e-01 4.71050000e+00 4.84981000e+00	N
atom  -1.08932000e-01 6.88511000e-01 9.16707000e+00	N
atom  1.13257000e+00 3.91295000e+00 7.43668000e+00	N
atom  3.38744000e-01 1.41447000e+00 6.63353000e+00	N
atom  8.98177000e-01 1.04030000e+00 5.06278000e+00	Si
atom  -3.52902000e-01 2.90845000e+00 7.30274000e+00	Si
atom  2.01747000e+00 6.74195000e+00 6.64125000e+00	N
atom  1.73531000e+00 8.03471000e+00 5.59734000e+00	Si
atom  9.41092000e-01 5.38569000e+00 6.50958000e+00	Si
atom  6.75506000e-01 9.28074000e+00 6.38397000e+00	N
atom  3.09877000e-01 2.73893000e+00 1.12568000e+01	N
atom  1.10108000e+00 3.46992000e+00 1.43458000e+01	Si
atom  1.37358000e+00 1.84044000e+00 1.37804000e+01	N
atom  1.56230000e+00 1.81294000e+00 1.20598000e+01	Si
atom  -2.53321000e-01 4.23786000e+00 1.19957000e+01	Si
atom  9.25655000e-01 4.54621000e-01 1.45904000e+01	Si
atom  -4.59878000e-01 3.74741000e+00 1.36324000e+01	N
atom  8.08076000e-01 5.48692000e+00 1.15548000e+01	N
atom  1.73527000e+00 8.73996000e+00 1.16819000e+01	Si
atom  5.00663000e-01 8.12163000e+00 1.05932000e+01	N
atom  6.51790000e-01 6.42783000e+00 1.00914000e+01	Si
atom  8.70149000e-01 7.91574000e+00 1.46517000e+01	Si
atom  1.66966000e+00 7.64603000e+00 1.31344000e+01	N
atom  9.56572000e-01 1.00614000e+01 1.45833000e+01	N
atom  -6.14991000e-02 2.38980000e+00 1.83830000e+01	N
atom  -9.71188000e-03 2.30031000e+00 1.66751000e+01	Si
atom  1.56700000e+00 2.17974000e+00 1.91003000e+01	Si
atom  7.57610000e-01 3.66826000e+00 1.60128000e+01	N
atom  6.27178000e-01 7.10129000e-01 1.62649000e+01	N
atom  7.50065000e-01 5.34254000e+00 1.62840000e+01	Si
atom  2.14926000e-01 6.25388000e+00 1.49463000e+01	N
atom  1.76631000e+00 8.22898000e+00 1.61119000e+01	N
atom  -7.12614000e-02 6.02729000e+00 1.76726000e+01	N
atom  8.34553000e-01 9.59438000e+00 1.91714000e+01	N
atom  1.08149000e+00 4.84123000e+00 2.27273000e+01	N
atom  1.51691000e+00 1.60094000e+00 2.23398000e+01	Si
atom  1.54776000e+00 2.50736000e+00 2.08084000e+01	N
atom  2.62471000e-01 4.99106000e+00 2.43072000e+01	Si
atom  -1.33674000e-01 1.50200000e+00 2.29185000e+01	N
atom  1.82935000e+00 5.39301000e+00 2.05445000e+01	N
atom  1.06037000e+00 6.38681000e+00 2.17523000e+01	Si
atom  1.68287000e+00 7.43598000e+00 2.45937000e+01	Si
atom  -3.03859000e-01 1.03214000e+01 2.13122000e+01	N
atom  2.83963000e-01 8.42198000e+00 2.46792000e+01	N
atom  1.99535000e+00 7.31244000e+00 2.28629000e+01	N
atom  5.89923000e-01 4.30413000e+00 2.74219000e+01	N
atom  1.27663000e+00 5.29325000e-01 2.67089000e+01	Si
atom  1.56505000e+00 1.73368000e+00 2.79309000e+01	N
atom  1.35644000e+00 1.34987000e+00 2.95762000e+01	Si
atom  -3.44115000e-01 3.59402000e+00 2.49811000e+01	N
atom  -3.45838000e-01 2.77892000e-01 2.61558000e+01	N
atom  7.29022000e-01 1.02526000e+01 2.87074000e+01	N
atom  1.31876000e+00 6.02120000e+00 2.91193000e+01	N
atom  1.63163000e+00 7.83698000e+00 2.73784000e+01	N
atom  1.27520000e+00 5.93685000e+00 2.73197000e+01	Si
atom  5.07326000e-01 8.59725000e+00 2.83963000e+01	Si
atom  1.07309000e+00 5.97321000e+00 2.54712000e+01	N
atom  1.89875000e-01 1.00841000e+01 2.50378000e+01	Si
atom  1.53062000e+00 3.17375000e+00 3.25747000e+01	N
atom  1.25900000e+00 4.84636000e+00 3.30441000e+01	Si
atom  4.01770000e-03 2.43286000e+00 3.00918000e+01	N
atom  -4.12429000e-02 2.67048000e+00 3.18669000e+01	Si
atom  2.03900000e-01 4.52608000e+00 3.44513000e+01	N
atom  1.96535000e+00 6.56623000e-01 3.37627000e+01	N
atom  6.27410000e-01 9.85183000e+00 3.09034000e+01	Si
atom  2.34828000e-01 8.23432000e+00 3.00862000e+01	N
atom  1.37582000e+00 7.63660000e+00 3.28585000e+01	Si
atom  4.10706000e-01 6.58282000e+00 3.04508000e+01	Si
atom  7.99496000e-01 6.21055000e+00 3.21368000e+01	N
atom  4.77097000e-01 9.12947000e+00 3.25067000e+01	N
atom  1.12349000e-01 9.81111000e+00 3.40887000e+01	Si
atom  1.05259000e+00 7.41925000e+00 3.45419000e+01	N
atom  1.74456000e+00 1.01403000e+01 3.46780000e+01	N
atom  5.57829000e-01 5.85183000e-01 3.47777000e+01	Si
atom  6.67802000e-01 3.89867000e+00 3.73031000e+01	N
atom  3.63510000e-01 1.31604000e+00 3.86749000e+01	N
atom  8.21243000e-01 3.34892000e+00 3.56569000e+01	Si
atom  1.18691000e+00 2.88955000e+00 3.86453000e+01	Si
atom  -2.23931000e-01 2.04272000e+00 3.52943000e+01	N
atom  1.74839000e+00 8.88331000e+00 3.94976000e+01	N
atom  6.61470000e-01 5.67569000e+00 3.72324000e+01	Si
atom  7.15570000e-01 6.26801000e+00 3.88578000e+01	N
atom  7.01366000e-01 1.39183000e+01 1.23571000e+00	N
atom  7.99693000e-01 1.11764000e+01 1.01752000e+00	N
atom  1.26164000e+00 1.09053000e+01 2.72577000e+00	Si
atom  1.42202000e+00 1.26237000e+01 2.36830000e-01	Si
atom  -2.97965000e-01 1.07542000e+01 3.51916000e+00	N
atom  1.40456000e+00 1.52004000e+01 2.28831000e+00	Si
atom  1.61677000e+00 1.54170000e+01 4.02583000e+00	N
atom  1.20658000e+00 1.69637000e+01 2.23445000e+00	N
atom  2.53120000e-01 1.96170000e+01 1.92672000e+00	N
atom  -2.21157000e-02 1.79420000e+01 1.51241000e+00	Si
atom  1.47720000e+00 2.02899000e+01 2.94229000e+00	Si
atom  5.97051000e-02 1.77549000e+01 -1.77514000e-01	N
atom  -3.29886000e-01 1.45389000e+01 5.79342000e+00	N
atom  7.42314000e-01 1.06346000e+01 7.47699000e+00	Si
atom  5.06247000e-03 1.35552000e+01 7.20851000e+00	Si
atom  1.64806000e+00 1.37955000e+01 7.75233000e+00	N
atom  2.77088000e-01 1.04420000e+01 9.14498000e+00	N
atom  -3.93619000e-01 1.18986000e+01 6.87167000e+00	N
atom  5.61274000e-01 1.75870000e+01 4.97120000e+00	N
atom  6.98526000e-01 1.80187000e+01 6.65728000e+00	Si
atom  7.06439000e-01 1.58927000e+01 5.45189000e+00	Si
atom  1.41926000e+00 1.63584000e+01 6.90550000e+00	N
atom  7.58550000e-01 1.14667000e+01 1.03884000e+01	Si
atom  1.39559000e+00 1.28286000e+01 1.35085000e+01	N
atom  1.58296000e+00 1.10753000e+01 1.33287000e+01	Si
atom  5.74772000e-01 1.50334000e+01 1.08992000e+01	N
atom  -2.00478000e-01 1.30026000e+01 1.28249000e+01	Si
atom  1.20564000e+00 1.04757000e+01 1.17970000e+01	N
atom  1.13804000e+00 1.53749000e+01 1.41322000e+01	N
atom  1.32929000e+00 1.64755000e+01 1.04389000e+01	Si
atom  5.95256000e-01 1.95727000e+01 1.26215000e+01	Si
atom  5.75602000e-01 1.80167000e+01 1.34899000e+01	N
atom  1.55197000e-01 1.75789000e+01 1.00135000e+01	N
atom  1.90090000e+00 1.68077000e+01 1.34352000e+01	Si
atom  1.26775000e+00 1.12963000e+01 1.70200000e+01	N
atom  9.05462000e-02 1.32420000e+01 1.82973000e+01	N
atom  6.89790000e-01 1.12702000e+01 1.86444000e+01	Si
atom  6.24012000e-01 1.48889000e+01 1.90819000e+01	Si
atom  7.23909000e-01 1.29140000e+01 1.66338000e+01	Si
atom  1.61407000e+00 1.83033000e+01 1.69845000e+01	N
atom  1.14666000e+00 1.98056000e+01 1.75794000e+01	Si
atom  -7.04895000e-02 1.96091000e+01 1.87742000e+01	N
atom  3.24665000e-01 1.65727000e+01 1.85087000e+01	N
atom  5.23394000e-01 1.44760000e+01 2.07817000e+01	N
atom  5.21930000e-01 1.24008000e+01 2.39404000e+01	Si
atom  1.47123000e+00 1.21140000e+01 2.24091000e+01	N
atom  1.41300000e+00 1.07065000e+01 2.13060000e+01	Si
atom  1.60027000e+00 1.31655000e+01 2.10580000e+01	Si
atom  1.78042000e+00 1.17909000e+01 1.99579000e+01	N
atom  -8.92650000e-03 1.86059000e+01 2.21772000e+01	Si
atom  1.60706000e+00 1.85211000e+01 2.28812000e+01	N
atom  1.90956000e+00 2.01661000e+01 2.22563000e+01	Si
atom  2.27021000e-01 2.02859000e+01 2.18507000e+01	N
atom  1.27973000e+00 1.65045000e+01 2.46783000e+01	N
atom  1.36742000e+00 1.37162000e+01 2.49491000e+01	N
atom  1.64357000e+00 1.09574000e+01 2.48725000e+01	N
atom  -3.85197000e-02 1.18054000e+01 2.90126000e+01	Si
atom  4.94823000e-01 1.36764000e+01 2.65151000e+01	Si
atom  9.55183000e-01 1.30318000e+01 2.81766000e+01	N
atom  -9.05545000e-02 1.52417000e+01 2.68566000e+01	N
atom  -2.31276000e-01 1.64264000e+01 2.55566000e+01	Si
atom  1.22809000e+00 1.88335000e+01 2.94610000e+01	Si
atom  -3.75236000e-01 1.89520000e+01 2.88610000e+01	N
atom  1.34376000e+00 1.56136000e+01 2.91701000e+01	N
atom  1.41242000e+00 1.18807000e+01 3.45294000e+01	Si
atom  -1.18225000e-01 1.14461000e+01 3.08083000e+01	N
atom  -2.78090000e-01 1.15903000e+01 3.38687000e+01	N
atom  3.61543000e-01 1.56248000e+01 3.19671000e+01	N
atom  1.31338000e+00 1.63705000e+01 3.08116000e+01	Si
atom  1.66769000e-01 1.86517000e+01 3.24392000e+01	Si
atom  1.27839000e+00 1.79753000e+01 3.35643000e+01	N
atom  8.73447000e-01 1.80169000e+01 3.09549000e+01	N
atom  9.10322000e-01 1.61874000e+01 3.36214000e+01	Si
atom  1.58931000e+00 1.31118000e+01 3.56954000e+01	N
atom  8.02615000e-01 1.27611000e+01 3.85289000e+01	N
atom  8.74772000e-01 1.38214000e+01 3.71044000e+01	Si
atom  1.63083000e+00 1.80047000e+01 3.89803000e+01	Si
atom  -2.85702000e-01 1.59710000e+01 3.47956000e+01	N
atom  7.53923000e-01 2.09463000e+01 4.39937000e+00	N
atom  1.45179000e+00 2.41982000e+01 1.08232000e+00	N
atom  1.51098000e+00 2.50049000e+01 3.80051000e+00	N
atom  2.58840000e-02 2.22046000e+01 1.01808000e+00	N
atom  -1.99838000e-01 2.38659000e+01 6.35277000e-01	Si
atom  1.77953000e+00 2.24908000e+01 8.55704000e-01	Si
atom  5.06078000e-01 2.77840000e+01 2.89789000e-01	N
atom  1.44213000e-01 2.52591000e+01 4.81622000e+00	Si
atom  1.69816000e+00 2.13251000e+01 9.60413000e+00	N
atom  -7.10456000e-02 2.47658000e+01 9.00876000e+00	Si
atom  2.15466000e-01 2.25046000e+01 6.88702000e+00	Si
atom  -1.83142000e-01 2.38721000e+01 5.85103000e+00	N
atom  1.07235000e-01 2.31370000e+01 8.46878000e+00	N
atom  1.71338000e+00 2.15876000e+01 6.91726000e+00	N
atom  1.30978000e+00 2.87094000e+01 8.76003000e+00	N
atom  6.21440000e-01 2.66161000e+01 5.74741000e+00	N
atom  -5.72558000e-02 2.82634000e+01 5.81917000e+00	Si
atom  -2.61667000e-02 2.76596000e+01 8.58587000e+00	Si
atom  1.20957000e+00 2.94928000e+01 6.00496000e+00	N
atom  7.62419000e-01 2.60972000e+01 8.26111000e+00	N
atom  1.89716000e+00 2.61392000e+01 6.99608000e+00	Si
atom  1.00094000e+00 2.26297000e+01 1.33349000e+01	Si
atom  3.62051000e-01 2.08801000e+01 1.37546000e+01	N
atom  7.46005000e-01 2.42839000e+01 1.04990000e+01	N
atom  5.30406000e-01 2.26014000e+01 1.01737000e+01	Si
atom  -1.49066000e-01 2.51635000e+01 1.33512000e+01	Si
atom  1.94827000e+00 2.45146000e+01 1.17343000e+01	Si
atom  1.61621000e+00 2.51743000e+01 1.33265000e+01	N
atom  2.10628000e+00 2.24700000e+01 1.46231000e+01	N
atom  1.32087000e+00 2.76377000e+01 1.12953000e+01	N
atom  1.52352000e+00 2.91815000e+01 1.04615000e+01	Si
atom  9.56020000e-02 3.01539000e+01 1.10055000e+01	N
atom  -3.12357000e-01 2.73191000e+01 1.14321000e+01	Si
atom  1.48088000e+00 2.09228000e+01 1.50957000e+01	Si
atom  5.37619000e-01 2.40984000e+01 1.93843000e+01	N
atom  5.85259000e-01 2.10514000e+01 1.65247000e+01	N
atom  1.07783000e+00 2.42386000e+01 1.77458000e+01	Si
atom  -3.23214000e-01 2.38984000e+01 1.66987000e+01	N
atom  1.30018000e-01 2.67150000e+01 1.96311000e+01	N
atom  7.39422000e-01 2.83222000e+01 1.95340000e+01	Si
atom  1.31196000e+00 2.57551000e+01 1.70102000e+01	N
atom  1.10580000e+00 2.85389000e+01 1.77341000e+01	N
atom  -3.08896000e-01 2.56890000e+01 1.62700000e+01	Si
atom  7.50394000e-01 2.53202000e+01 2.21118000e+01	N
atom  1.07340000e+00 2.54479000e+01 2.03548000e+01	Si
atom  9.76556000e-01 2.62957000e+01 2.46620000e+01	N
atom  1.32436000e+00 3.03644000e+01 2.20154000e+01	N
atom  -4.04049000e-01 2.94054000e+01 2.02064000e+01	N
atom  -1.19054000e-01 2.06088000e+01 2.48245000e+01	N
atom  -1.89613000e-01 2.40229000e+01 2.89702000e+01	N
atom  1.60815000e+00 2.08305000e+01 2.50284000e+01	Si
atom  -8.79424000e-02 2.33028000e+01 2.60445000e+01	N
atom  1.62054000e+00 2.35893000e+01 2.60458000e+01	Si
atom  8.87634000e-01 2.88438000e+01 2.60324000e+01	Si
atom  3.20084000e-02 2.99617000e+01 2.72263000e+01	N
atom  3.56826000e-01 2.12740000e+01 3.07152000e+01	Si
atom  1.13758000e+00 2.28499000e+01 3.11668000e+01	N
atom  1.34289000e+00 2.23036000e+01 3.39997000e+01	N
atom  8.33361000e-01 2.49559000e+01 3.29618000e+01	N
atom  -1.85786000e-01 2.16142000e+01 3.36094000e+01	Si
atom  1.09945000e-01 2.04501000e+01 3.22381000e+01	N
atom  1.77490000e+00 2.35258000e+01 3.26874000e+01	Si
atom  1.38151000e+00 2.39402000e+01 2.98455000e+01	Si
atom  1.62825000e+00 2.04550000e+01 2.98440000e+01	N
atom  1.66307000e+00 2.62348000e+01 3.20995000e+01	Si
atom  5.94763000e-01 2.74699000e+01 3.16747000e+01	N
atom  1.52176000e+00 2.86993000e+01 3.07263000e+01	Si
atom  1.72791000e-01 2.96427000e+01 3.01391000e+01	N
atom  6.37198000e-01 2.96462000e+01 3.49496000e+01	N
atom  -1.61030000e-01 2.37832000e+01 3.88360000e+01	N
atom  6.64561000e-01 2.31728000e+01 3.73922000e+01	Si
atom  1.42738000e+00 2.42636000e+01 3.62644000e+01	N
atom  1.68158000e+00 2.17230000e+01 3.71444000e+01	N
atom  8.34994000e-01 2.72274000e+01 3.84358000e+01	Si
atom  8.74557000e-01 2.87762000e+01 3.76254000e+01	N
atom  -2.23920000e-01 2.62326000e+01 3.74973000e+01	N
atom  1.14714000e+00 2.68732000e+01 3.54090000e+01	N
atom  1.34611000e+00 2.85464000e+01 3.59386000e+01	Si
atom  2.54973000e-01 2.55368000e+01 3.59696000e+01	Si
atom  5.73296000e-01 3.23082000e+01 5.59545000e-01	Si
atom  1.19246000e-01 3.12083000e+01 3.16332000e+00	Si
atom  4.74782000e-02 3.26481000e+01 2.18702000e+00	N
atom  4.30955000e-01 3.51464000e+01 4.13939000e+00	N
atom  1.72672000e+00 3.09420000e+01 3.69753000e+00	N
atom  -3.25677000e-01 3.36857000e+01 3.56769000e+00	Si
atom  6.37658000e-01 3.62559000e+01 2.85942000e+00	Si
atom  1.03648000e+00 3.79617000e+01 3.33437000e+00	N
atom  -2.10657000e-01 3.91597000e+01 1.00072000e+00	N
atom  -2.02533000e-01 3.90360000e+01 2.74716000e+00	Si
atom  1.31329000e+00 3.19232000e+01 6.31915000e+00	N
atom  8.43695000e-01 3.19774000e+01 8.95314000e+00	N
atom  7.67237000e-02 3.26464000e+01 7.48978000e+00	Si
atom  9.86317000e-01 3.41962000e+01 7.09801000e+00	N
atom  -1.61075000e-03 3.08205000e+01 5.68271000e+00	Si
atom  1.77232000e+00 3.92889000e+01 8.08816000e+00	N
atom  -3.18476000e-01 3.89649000e+01 5.86814000e+00	N
atom  9.67096000e-01 3.70219000e+01 9.65536000e+00	N
atom  1.53041000e-01 3.97857000e+01 7.58490000e+00	Si
atom  7.15679000e-01 3.54593000e+01 5.88263000e+00	Si
atom  1.88295000e+00 3.68094000e+01 5.85437000e+00	N
atom  1.57263000e+00 4.02770000e+01 9.60460000e+00	Si
atom  3.12006000e-01 3.18415000e+01 1.06013000e+01	Si
atom  1.50040000e+00 3.24439000e+01 1.17663000e+01	N
atom  5.08896000e-01 3.50592000e+01 1.18508000e+01	N
atom  1.71205000e+00 3.10110000e+01 1.44510000e+01	Si
atom  1.56802000e+00 3.75320000e+01 1.23408000e+01	N
atom  1.58714000e+00 3.63510000e+01 1.11184000e+01	Si
atom  1.74863000e-01 3.77900000e+01 1.33232000e+01	Si
atom  1.74009000e+00 4.01617000e+01 1.13112000e+01	N
atom  5.45879000e-01 3.70085000e+01 1.48127000e+01	N
atom  1.99655000e-01 3.17248000e+01 1.48141000e+01	N
atom  1.02936000e-01 3.32275000e+01 1.55877000e+01	Si
atom  1.46287000e+00 3.42042000e+01 1.60669000e+01	N
atom  9.60063000e-01 3.39673000e+01 1.89497000e+01	N
atom  1.46891000e+00 3.12177000e+01 1.83832000e+01	N
atom  1.17260000e+00 3.50211000e+01 1.75485000e+01	Si
atom  1.23578000e-01 3.22892000e+01 1.85706000e+01	Si
atom  1.58380000e+00 3.82078000e+01 1.71474000e+01	N
atom  7.96768000e-01 3.96671000e+01 1.76488000e+01	Si
atom  -2.06504000e-01 3.59009000e+01 1.71663000e+01	N
atom  8.33042000e-01 3.43108000e+01 2.20840000e+01	N
atom  9.22303000e-01 3.34007000e+01 2.06658000e+01	Si
atom  4.27908000e-01 3.15462000e+01 2.43770000e+01	N
atom  -1.42363000e-01 3.21056000e+01 2.03368000e+01	N
atom  -2.04069000e-01 3.06410000e+01 2.12919000e+01	Si
atom  1.76269000e+00 3.07624000e+01 2.37174000e+01	Si
atom  1.35680000e+00 3.70238000e+01 2.22090000e+01	N
atom  8.25874000e-01 3.68245000e+01 2.38588000e+01	Si
atom  1.43172000e+00 3.85968000e+01 2.14089000e+01	Si
atom  -2.04711000e-01 3.90360000e+01 2.10012000e+01	N
atom  8.14217000e-01 3.82784000e+01 2.47239000e+01	N
atom  3.16175000e-01 3.47897000e+01 2.93336000e+01	N
atom  6.54982000e-01 3.06181000e+01 2.87752000e+01	Si
atom  4.37465000e-01 3.44061000e+01 2.68540000e+01	N
atom  1.57304000e+00 3.48932000e+01 2.81122000e+01	Si
atom  8.37669000e-01 3.21384000e+01 2.94621000e+01	N
atom  1.72670000e+00 3.47596000e+01 2.57420000e+01	Si
atom  1.70633000e+00 3.88878000e+01 2.74554000e+01	N
atom  1.94322000e+00 3.70841000e+01 2.91837000e+01	N
atom  3.56386000e-01 3.97672000e+01 2.96918000e+01	N
atom  6.04395000e-01 3.83352000e+01 2.87719000e+01	Si
atom  5.64241000e-01 3.34477000e+01 3.05520000e+01	Si
atom  8.15378000e-01 3.25506000e+01 3.44666000e+01	N
atom  -3.16307000e-01 3.35812000e+01 3.36824000e+01	Si
atom  -2.83254000e-01 3.34197000e+01 3.20263000e+01	N
atom  1.40477000e-01 3.51438000e+01 3.42536000e+01	N
atom  3.83884000e-01 3.65864000e+01 3.32281000e+01	Si
atom  1.11319000e+00 3.59352000e+01 3.18192000e+01	N
atom  7.24957000e-01 3.61923000e+01 3.01598000e+01	Si
atom  1.53109000e+00 3.77314000e+01 3.40445000e+01	N
atom  -6.86306000e-02 3.08188000e+01 3.96098000e+01	N
atom  3.33053000e-02 3.12108000e+01 3.53715000e+01	Si
atom  8.11701000e-01 3.13644000e+01 3.69081000e+01	N
atom  -1.11721000e-01 3.34429000e+01 3.93429000e+01	N
atom  -2.85077000e-02 3.02184000e+01 3.80067000e+01	Si
atom  -3.98329000e-01 3.65884000e+01 3.91584000e+01	N
atom  1.46733000e+00 3.86121000e+01 3.85576000e+01	N
atom  5.78912000e-01 3.54418000e+01 3.58823000e+01	Si
atom  4.43724000e-01 3.71471000e+01 3.64218000e+01	N
atom  5.29022000e-01 3.98100000e+01 3.77442000e+01	Si
atom  9.10633000e-01 3.70231000e+01 3.81919000e+01	Si
atom  1.29112000e+00 3.96573000e+01 3.61789000e+01	N
atom  1.81070000e+00 3.81601000e+01 3.56839000e+01	Si
atom  2.96865000e+00 1.27776000e+00 1.30766000e+00	Si
atom  3.05744000e+00 9.03759000e-01 3.96953000e+00	Si
atom  2.31060000e+00 4.37583000e+00 2.51965000e+00	N
atom  2.28390000e+00 3.87141000e+00 4.15176000e+00	Si
atom  4.16286000e+00 2.52459000e+00 1.62110000e+00	N
atom  3.56189000e+00 4.28415000e-01 -1.49114000e-01	N
atom  2.78516000e+00 6.02271000e+00 2.48462000e+00	Si
atom  3.02855000e+00 6.95090000e+00 4.03876000e+00	N
atom  3.40835000e+00 8.70085000e+00 3.68814000e+00	Si
atom  2.01210000e+00 9.38043000e+00 2.83230000e+00	N
atom  3.71358000e+00 4.31347000e+00 5.06660000e+00	N
atom  2.55380000e+00 1.70570000e+00 9.26324000e+00	N
atom  3.10468000e+00 2.10136000e+00 6.80904000e+00	N
atom  2.54055000e+00 3.09708000e+00 8.08993000e+00	Si
atom  3.34814000e+00 4.00586000e+00 9.37574000e+00	N
atom  3.09920000e+00 6.96505000e+00 7.90521000e+00	Si
atom  3.06689000e+00 9.18975000e+00 5.30755000e+00	N
atom  4.16372000e+00 8.62712000e+00 9.69791000e+00	Si
atom  4.04179000e+00 6.00376000e+00 5.36342000e+00	Si
atom  3.50620000e+00 8.72844000e+00 8.13513000e+00	N
atom  2.21281000e+00 6.39580000e+00 9.29774000e+00	N
atom  3.59654000e+00 9.86709000e+00 6.86724000e+00	Si
atom  3.09572000e+00 2.44174000e+00 1.17706000e+01	N
atom  2.32552000e+00 4.58617000e+00 1.38246000e+01	N
atom  3.79272000e+00 2.52759000e+00 1.01653000e+01	Si
atom  3.85126000e+00 4.59314000e+00 1.45370000e+01	Si
atom  3.53060000e+00 5.86400000e+00 1.17577000e+01	N
atom  3.43723000e+00 9.03034000e+00 1.11538000e+01	N
atom  3.58679000e+00 5.57980000e+00 1.00672000e+01	Si
atom  2.10360000e+00 5.96248000e+00 1.26955000e+01	Si
atom  4.35049000e+00 1.02534000e+01 1.20695000e+01	Si
atom  3.94745000e+00 3.59215000e+00 1.59510000e+01	N
atom  3.41291000e+00 4.34125000e+00 1.74000000e+01	Si
atom  2.97871000e+00 2.87785000e+00 1.84003000e+01	N
atom  4.18364000e+00 5.24560000e+00 1.87410000e+01	N
atom  1.95865000e+00 5.24616000e-01 1.87601000e+01	N
atom  1.92561000e+00 1.00540000e+01 1.60384000e+01	Si
atom  3.56757000e+00 1.01745000e+01 1.85713000e+01	N
atom  2.70248000e+00 7.24314000e+00 1.71344000e+01	Si
atom  2.44536000e+00 5.61920000e+00 1.67167000e+01	N
atom  2.67939000e+00 7.48806000e+00 1.88518000e+01	N
atom  3.69723000e+00 1.02337000e+01 1.59013000e+01	N
atom  2.47641000e+00 9.11092000e+00 1.94253000e+01	Si
atom  3.20709000e+00 6.26232000e+00 1.98333000e+01	Si
atom  3.82458000e+00 3.93696000e+00 2.13279000e+01	N
atom  2.59221000e+00 2.71388000e+00 2.31429000e+01	N
atom  2.12504000e+00 3.92911000e+00 2.16659000e+01	Si
atom  3.06648000e+00 2.33535000e+00 2.47693000e+01	Si
atom  3.42573000e+00 8.13153000e+00 2.20927000e+01	Si
atom  2.58593000e+00 9.37884000e+00 2.11414000e+01	N
atom  4.05115000e+00 6.77844000e+00 2.12564000e+01	N
atom  2.15193000e+00 9.79679000e-01 2.52360000e+01	N
atom  3.11669000e+00 3.41954000e+00 2.61180000e+01	N
atom  3.28413000e+00 3.74223000e+00 2.86967000e+01	N
atom  2.00670000e+00 3.32353000e+00 2.75263000e+01	Si
atom  3.26343000e+00 7.48155000e+00 2.69318000e+01	Si
atom  3.12005000e+00 5.83529000e+00 2.75049000e+01	N
atom  4.24460000e+00 1.00345000e+01 2.54974000e+01	N
atom  3.22669000e+00 7.64672000e+00 2.52163000e+01	N
atom  3.03306000e+00 5.39823000e+00 2.93390000e+01	Si
atom  3.08193000e+00 3.19791000e+00 3.14124000e+01	Si
atom  2.60445000e+00 2.26098000e+00 3.37311000e+01	Si
atom  2.79269000e+00 1.65236000e+00 3.05083000e+01	N
atom  2.96674000e+00 4.89342000e+00 3.10582000e+01	N
atom  4.03662000e+00 2.73088000e+00 3.28839000e+01	N
atom  2.68390000e+00 5.58473000e+00 3.38188000e+01	N
atom  3.46034000e+00 6.05368000e+00 3.23209000e+01	Si
atom  3.49329000e+00 9.22893000e+00 3.16005000e+01	Si
atom  2.91818000e+00 7.67832000e+00 3.19910000e+01	N
atom  3.36400000e+00 9.56198000e+00 3.46578000e+01	Si
atom  4.26468000e+00 9.68398000e+00 3.31778000e+01	N
atom  2.41313000e+00 2.83354000e+00 3.53625000e+01	N
atom  2.80278000e+00 2.40989000e+00 3.82400000e+01	N
atom  3.57314000e+00 2.69394000e+00 3.66519000e+01	Si
atom  3.71525000e+00 7.95848000e+00 3.52178000e+01	N
atom  3.35682000e+00 6.30240000e+00 3.92045000e+01	N
atom  2.54486000e+00 6.68783000e+00 3.51116000e+01	Si
atom  2.22735000e+00 6.06564000e+00 3.66730000e+01	N
atom  3.65793000e+00 5.76209000e+00 3.75579000e+01	Si
atom  1.94642000e+00 7.15083000e+00 3.97551000e+01	Si
atom  3.36645000e+00 1.32395000e+01 1.84828000e+00	Si
atom  3.14801000e+00 1.24045000e+01 3.26854000e-01	N
atom  3.06992000e+00 1.49038000e+01 1.71996000e+00	N
atom  2.43862000e+00 1.22398000e+01 2.94974000e+00	N
atom  3.90383000e+00 1.89328000e+01 4.47150000e+00	Si
atom  2.52504000e+00 1.89596000e+01 3.41311000e+00	N
atom  3.86084000e+00 1.60787000e+01 6.83217000e-01	Si
atom  1.90948000e+00 1.73342000e+01 3.80271000e+00	Si
atom  2.40678000e+00 1.11127000e+01 7.35973000e+00	N
atom  2.58486000e+00 1.25362000e+01 8.32238000e+00	Si
atom  3.92042000e+00 1.49640000e+01 6.72947000e+00	N
atom  4.19154000e+00 1.29751000e+01 8.70542000e+00	N
atom  2.43700000e+00 1.53324000e+01 7.73101000e+00	Si
atom  3.14042000e+00 1.78161000e+01 8.52661000e+00	Si
atom  2.65154000e+00 1.62752000e+01 9.24329000e+00	N
atom  3.39856000e+00 1.73157000e+01 4.92189000e+00	N
atom  1.90402000e+00 1.88371000e+01 7.69051000e+00	N
atom  3.73762000e+00 1.45755000e+01 1.41664000e+01	N
atom  3.30493000e+00 1.08366000e+01 1.33828000e+01	N
atom  3.71079000e+00 1.28654000e+01 1.04238000e+01	Si
atom  3.93408000e+00 1.42860000e+01 1.14321000e+01	N
atom  2.16529000e+00 1.40431000e+01 1.45516000e+01	Si
atom  2.10869000e+00 1.23942000e+01 9.99742000e+00	N
atom  3.21245000e+00 1.85474000e+01 1.15688000e+01	Si
atom  3.12619000e+00 1.72275000e+01 1.45145000e+01	N
atom  2.54618000e+00 1.68325000e+01 1.17548000e+01	N
atom  3.69827000e+00 1.58792000e+01 1.07286000e+01	Si
atom  2.05537000e+00 1.97969000e+01 1.17970000e+01	N
atom  3.66231000e+00 1.87693000e+01 9.88819000e+00	N
atom  3.99671000e+00 1.33405000e+01 1.87932000e+01	N
atom  3.32405000e+00 1.43294000e+01 1.74263000e+01	Si
atom  3.66540000e+00 1.16878000e+01 1.93768000e+01	Si
atom  2.18065000e+00 1.37635000e+01 1.62812000e+01	N
atom  2.34257000e+00 1.51233000e+01 1.87971000e+01	N
atom  2.09374000e+00 1.68464000e+01 1.80989000e+01	Si
atom  4.11676000e+00 1.58866000e+01 1.53953000e+01	Si
atom  2.96023000e+00 1.83171000e+01 1.58646000e+01	Si
atom  2.82560000e+00 1.98780000e+01 1.50633000e+01	N
atom  3.10386000e+00 1.77931000e+01 1.92445000e+01	N
atom  3.29565000e+00 1.94597000e+01 1.95659000e+01	Si
atom  3.19951000e+00 1.63523000e+01 1.68118000e+01	N
atom  3.17392000e+00 1.37835000e+01 2.12349000e+01	N
atom  4.11826000e+00 1.21711000e+01 2.34885000e+01	N
atom  3.97336000e+00 1.48785000e+01 2.44071000e+01	N
atom  3.59465000e+00 1.46627000e+01 1.98530000e+01	Si
atom  2.19103000e+00 1.79467000e+01 2.44214000e+01	Si
atom  3.30591000e+00 1.14202000e+01 2.48677000e+01	Si
atom  3.53749000e+00 1.35513000e+01 2.86639000e+01	N
atom  3.85944000e+00 1.26598000e+01 2.59678000e+01	N
atom  2.38516000e+00 1.51218000e+01 2.50639000e+01	Si
atom  1.96438000e+00 1.38914000e+01 2.93378000e+01	Si
atom  2.43497000e+00 1.93808000e+01 2.53233000e+01	N
atom  2.55381000e+00 1.53907000e+01 2.67322000e+01	N
atom  2.71800000e+00 1.63048000e+01 2.81511000e+01	Si
atom  3.86594000e+00 1.75571000e+01 2.48171000e+01	N
atom  2.46831000e+00 1.80201000e+01 2.84738000e+01	N
atom  3.90558000e+00 1.89606000e+01 2.84624000e+01	Si
atom  4.47184000e+00 1.61506000e+01 2.82386000e+01	N
atom  4.28063000e+00 1.93303000e+01 2.51502000e+01	Si
atom  2.90493000e+00 1.20146000e+01 3.16467000e+01	Si
atom  2.98260000e+00 1.46754000e+01 3.22912000e+01	Si
atom  2.54417000e+00 1.22739000e+01 3.32884000e+01	N
atom  2.34028000e+00 1.37007000e+01 3.09951000e+01	N
atom  2.31489000e+00 1.51322000e+01 3.38354000e+01	N
atom  2.31537000e+00 1.04556000e+01 3.11110000e+01	N
atom  2.99103000e+00 1.62929000e+01 3.13898000e+01	N
atom  2.76554000e+00 1.86813000e+01 3.40656000e+01	Si
atom  3.76267000e+00 1.89010000e+01 3.26418000e+01	N
atom  4.13984000e+00 1.75937000e+01 3.14597000e+01	Si
atom  4.07975000e+00 1.07111000e+01 3.56614000e+01	N
atom  2.77075000e+00 1.43719000e+01 3.54365000e+01	Si
atom  2.20539000e+00 1.50715000e+01 3.69630000e+01	N
atom  4.38769000e+00 1.38154000e+01 3.53020000e+01	N
atom  2.76978000e+00 1.66470000e+01 3.93816000e+01	N
atom  3.17378000e+00 1.91661000e+01 3.64397000e+01	Si
atom  2.53256000e+00 2.00961000e+01 3.50321000e+01	N
atom  3.82443000e+00 1.80481000e+01 3.52891000e+01	N
atom  2.96410000e+00 1.63998000e+01 3.76655000e+01	Si
atom  2.05854000e+00 1.79502000e+01 3.72598000e+01	N
atom  2.04919000e+00 1.95922000e+01 3.93167000e+01	N
atom  3.59705000e+00 2.42485000e+01 2.38417000e+00	N
atom  3.63362000e+00 2.26361000e+01 2.92463000e+00	Si
atom  2.38474000e+00 2.15599000e+01 2.24572000e+00	N
atom  3.06631000e+00 2.28748000e+01 4.53697000e+00	N
atom  2.16344000e+00 2.51332000e+01 2.21560000e+00	Si
atom  3.46586000e+00 2.90453000e+01 3.01279000e-01	N
atom  2.79589000e+00 2.67693000e+01 1.92797000e+00	N
atom  2.26854000e+00 2.76550000e+01 5.54113000e-01	Si
atom  3.80138000e+00 2.61626000e+01 4.67549000e+00	N
atom  4.14301000e+00 2.67071000e+01 3.06065000e+00	Si
atom  2.92908000e+00 2.45762000e+01 4.85024000e+00	Si
atom  2.28815000e+00 2.14638000e+01 5.25491000e+00	Si
atom  2.77366000e+00 2.46454000e+01 6.59992000e+00	N
atom  3.95378000e+00 2.06904000e+01 8.10632000e+00	N
atom  2.21001000e+00 2.04948000e+01 8.11380000e+00	Si
atom  3.73211000e+00 2.04226000e+01 5.35876000e+00	N
atom  3.85954000e+00 2.96324000e+01 5.40439000e+00	N
atom  3.10595000e+00 2.74280000e+01 7.13412000e+00	N
atom  2.37686000e+00 2.89576000e+01 7.34608000e+00	Si
atom  2.68139000e+00 2.12388000e+01 1.10351000e+01	Si
atom  1.96888000e+00 2.26233000e+01 1.18891000e+01	N
atom  4.38162000e+00 2.14761000e+01 1.06846000e+01	N
atom  3.08860000e+00 2.56928000e+01 1.11401000e+01	N
atom  3.84147000e+00 2.84289000e+01 1.08795000e+01	N
atom  3.59405000e+00 2.72803000e+01 1.34452000e+01	N
atom  2.92298000e+00 2.72870000e+01 1.18350000e+01	Si
atom  2.70422000e+00 2.60448000e+01 1.43664000e+01	Si
atom  2.96562000e+00 2.88377000e+01 1.44213000e+01	Si
atom  2.20265000e+00 2.98670000e+01 1.31606000e+01	N
atom  3.66355000e+00 2.47949000e+01 1.51143000e+01	N
atom  3.07461000e+00 2.32682000e+01 1.57868000e+01	Si
atom  3.28388000e+00 2.19945000e+01 1.79374000e+01	Si
atom  2.34016000e+00 2.32441000e+01 1.73511000e+01	N
atom  2.65929000e+00 2.04802000e+01 1.83485000e+01	N
atom  1.99722000e+00 2.74397000e+01 1.52428000e+01	N
atom  2.02285000e+00 2.73405000e+01 1.69262000e+01	Si
atom  3.69643000e+00 2.73771000e+01 1.77823000e+01	N
atom  2.21259000e+00 2.99247000e+01 1.57500000e+01	N
atom  3.51886000e+00 2.72008000e+01 1.95475000e+01	Si
atom  2.20976000e+00 2.99489000e+01 1.74539000e+01	Si
atom  3.74097000e+00 3.04560000e+01 1.80542000e+01	N
atom  3.07458000e+00 2.27804000e+01 2.33627000e+01	Si
atom  3.27685000e+00 2.32083000e+01 2.16148000e+01	N
atom  3.75661000e+00 2.48911000e+01 2.12673000e+01	Si
atom  3.87017000e+00 2.17852000e+01 2.07695000e+01	Si
atom  2.13889000e+00 2.38542000e+01 2.43385000e+01	N
atom  2.25648000e+00 2.13441000e+01 2.34712000e+01	N
atom  2.92579000e+00 2.04304000e+01 2.09539000e+01	N
atom  3.42329000e+00 2.56900000e+01 2.27742000e+01	N
atom  2.72506000e+00 2.96804000e+01 2.12983000e+01	Si
atom  3.58774000e+00 2.87691000e+01 2.25368000e+01	N
atom  3.37129000e+00 2.85713000e+01 2.42355000e+01	Si
atom  2.72336000e+00 2.56834000e+01 2.01028000e+01	N
atom  2.40026000e+00 2.84221000e+01 2.01173000e+01	N
atom  1.81535000e+00 2.54128000e+01 2.34224000e+01	Si
atom  1.93200000e+00 2.93899000e+01 2.47696000e+01	N
atom  3.63990000e+00 2.42464000e+01 2.78584000e+01	Si
atom  3.70702000e+00 2.16567000e+01 2.69018000e+01	Si
atom  3.88622000e+00 2.07218000e+01 2.83778000e+01	N