lattice_vector  3.99299172e+01 0.00000000e+00 0.00000000e+00
lattice_vector  2.44500227e-15 3.99299172e+01 0.00000000e+00
lattice_vector  2.44500227e-15 2.44500227e-15 3.99299172e+01
atom  6.34245000e-01 4.28535000e+00 9.19718000e-01	N
atom  1.07872000e+00 4.84842000e+00 2.53697000e+00	Si
atom  -3.26640000e-01 4.83659000e+00 3.51079000e+00	N
atom  4.52196000e-01 6.53558000e-01 4.64654000e+00	N
atom  7.53925000e-01 8.91386000e+00 3.51123000e+00	N
atom  6.76652000e-02 8.31378000e+00 1.08319000e+00	N
atom  1.51862000e+00 7.41540000e+00 3.90380000e+00	Si
atom  1.55707000e+00 6.54078000e+00 2.43322000e+00	N
atom  1.75540000e+00 7.70599000e+00 1.11474000e+00	Si
atom  1.38028000e+00 2.94913000e+00 5.46519000e+00	N
atom  -8.06926000e-02 2.00042000e+00 5.56009000e+00	Si
atom  1.09333000e+00 2.36928000e+00 9.61462000e+00	N
atom  -2.68317000e-01 2.39596000e+00 8.44659000e+00	Si
atom  9.34537000e-01 5.12855000e+00 8.29778000e+00	Si
atom  -2.64626000e-01 3.99209000e+00 7.86863000e+00	N
atom  3.30640000e-01 7.71804000e+00 6.79100000e+00	Si
atom  2.36131000e-01 6.79883000e+00 8.26073000e+00	N
atom  7.33873000e-01 6.83656000e+00 5.33366000e+00	N
atom  5.42163000e-01 9.45177000e+00 7.12067000e+00	N
atom  8.35810000e-01 3.61756000e+00 1.08520000e+01	Si
atom  7.05520000e-01 1.82732000e+00 1.28083000e+01	Si
atom  1.63569000e+00 3.13171000e+00 1.22513000e+01	N
atom  1.46508000e+00 4.95269000e+00 9.94568000e+00	N
atom  1.31041000e+00 4.55345000e-01 1.36538000e+01	N
atom  1.01820000e+00 5.26278000e+00 1.36770000e+01	N
atom  -3.06538000e-01 8.77784000e-01 1.18102000e+01	N
atom  1.67965000e+00 8.85630000e+00 1.08583000e+01	Si
atom  8.41691000e-01 6.86737000e+00 1.43475000e+01	Si
atom  1.30319000e-01 9.20245000e+00 1.15097000e+01	N
atom  8.22851000e-01 1.52308000e-01 1.63012000e+01	N
atom  1.22270000e+00 2.73280000e+00 1.59893000e+01	N
atom  -1.15325000e-01 1.56771000e+00 1.54722000e+01	Si
atom  9.79133000e-02 4.39996000e+00 1.78794000e+01	N
atom  7.59149000e-01 1.52180000e+00 1.86569000e+01	N
atom  3.94595000e-01 2.73788000e+00 1.74979000e+01	Si
atom  7.67432000e-01 7.83478000e+00 1.88395000e+01	N
atom  9.32921000e-01 8.05048000e+00 1.71333000e+01	Si
atom  5.74762000e-01 6.70110000e+00 1.60354000e+01	N
atom  6.49261000e-01 9.65460000e-01 2.18108000e+01	N
atom  1.15858000e+00 9.20881000e-01 2.43084000e+01	N
atom  2.72889000e-03 1.30602000e+00 2.02123000e+01	Si
atom  1.79310000e+00 4.21256000e+00 2.01205000e+01	N
atom  -2.69087000e-01 1.14817000e+00 2.32992000e+01	Si
atom  -7.45629000e-03 5.46677000e+00 2.29954000e+01	N
atom  1.78442000e-01 4.22941000e+00 1.96570000e+01	Si
atom  1.63063000e+00 9.25895000e+00 2.27907000e+01	Si
atom  3.75943000e-01 8.05168000e+00 2.31153000e+01	N
atom  1.13093000e+00 9.52049000e+00 2.10561000e+01	N
atom  1.27515000e+00 6.58694000e+00 2.27912000e+01	Si
atom  1.70863000e+00 8.11139000e+00 2.01876000e+01	Si
atom  1.70735000e+00 1.01997000e+01 2.42126000e+01	N
atom  1.65994000e+00 2.42289000e+00 2.66563000e+01	N
atom  3.31291000e-01 4.83518000e+00 2.58821000e+01	N
atom  5.45235000e-01 1.34474000e+00 2.60027000e+01	Si
atom  1.03446000e+00 1.10046000e+00 2.93951000e+01	N
atom  1.75815000e+00 3.90235000e+00 2.57750000e+01	Si
atom  2.51890000e-01 6.40768000e+00 2.98111000e+01	Si
atom  1.38986000e+00 1.00377000e+01 2.72210000e+01	N
atom  8.46912000e-02 6.02432000e+00 2.71018000e+01	Si
atom  -3.30479000e-01 9.37943000e+00 2.97646000e+01	Si
atom  1.70871000e+00 8.42215000e+00 2.78129000e+01	Si
atom  1.26111000e+00 7.31338000e+00 2.65732000e+01	N
atom  4.99482000e-01 8.00318000e+00 2.91390000e+01	N
atom  1.01677000e+00 5.49793000e+00 2.85463000e+01	N
atom  4.46888000e-01 3.63362000e+00 3.33958000e+01	N
atom  1.00775000e+00 4.27588000e+00 3.17820000e+01	Si
atom  6.50343000e-01 7.72719000e-01 3.18479000e+01	N
atom  -1.81936000e-01 1.58780000e+00 3.05334000e+01	Si
atom  1.11623000e+00 4.62648000e+00 3.45696000e+01	Si
atom  -9.04820000e-02 3.34107000e+00 3.07098000e+01	N
atom  6.83268000e-01 6.33644000e+00 3.41252000e+01	N
atom  8.33573000e-01 5.96747000e+00 3.14003000e+01	N
atom  4.44688000e-01 9.78019000e+00 3.20291000e+01	Si
atom  1.51239000e+00 6.97272000e+00 3.26804000e+01	Si
atom  1.63126000e+00 8.71820000e+00 3.25580000e+01	N
atom  1.29037000e+00 2.78728000e+00 3.68873000e+01	Si
atom  5.55115000e-01 4.16463000e+00 3.61159000e+01	N
atom  3.90907000e-01 1.23972000e+00 3.68004000e+01	N
atom  1.28273000e+00 3.01723000e+00 3.85578000e+01	N
atom  1.43908000e+00 1.32926000e+00 3.90529000e+01	Si
atom  8.51420000e-02 3.02919000e-01 3.92373000e+01	N
atom  -3.13503000e-01 5.43565000e+00 3.70475000e+01	Si
atom  8.20594000e-01 9.86667000e+00 3.72231000e+01	N
atom  7.90203000e-01 6.77633000e+00 3.71794000e+01	N
atom  -6.87912000e-02 8.32523000e+00 3.70645000e+01	Si
atom  7.78252000e-01 1.29752000e+01 2.32744000e+00	Si
atom  3.22061000e-01 1.32827000e+01 6.74450000e-01	N
atom  1.61679000e+00 1.45492000e+01 2.83505000e+00	N
atom  1.70626000e+00 1.14958000e+01 2.33531000e+00	N
atom  1.58891000e+00 1.04149000e+01 3.73412000e+00	Si
atom  7.87191000e-01 1.55245000e+01 4.18123000e+00	Si
atom  -1.14181000e-01 1.85876000e+01 1.12715000e+00	N
atom  7.47890000e-01 1.72720000e+01 4.24880000e+00	N
atom  1.39943000e+00 1.81044000e+01 4.88846000e-01	Si
atom  3.52582000e-01 1.58522000e+01 1.58437000e-01	N
atom  1.71692000e+00 1.52116000e+01 1.13443000e+00	Si
atom  4.71626000e-01 1.12206000e+01 4.75463000e+00	N
atom  8.72674000e-01 1.10018000e+01 6.34865000e+00	Si
atom  4.56173000e-01 1.24373000e+01 8.85238000e+00	Si
atom  -6.04908000e-02 1.21182000e+01 7.29420000e+00	N
atom  1.39981000e+00 1.51646000e+01 5.70050000e+00	N
atom  -3.00546000e-01 1.10442000e+01 9.58017000e+00	N
atom  -3.63929000e-01 1.38788000e+01 9.40153000e+00	N
atom  -4.24503000e-01 1.99324000e+01 6.28499000e+00	Si
atom  -1.30428000e-01 1.99759000e+01 8.02990000e+00	N
atom  1.15839000e+00 1.98107000e+01 5.50985000e+00	N
atom  1.30488000e+00 1.89937000e+01 8.26062000e+00	Si
atom  1.50120000e+00 1.77375000e+01 6.97993000e+00	N
atom  1.74485000e+00 1.81746000e+01 5.32443000e+00	Si
atom  1.46572000e+00 1.82642000e+01 9.81389000e+00	N
atom  5.13253000e-01 1.33745000e+01 1.26358000e+01	Si
atom  1.07642000e+00 1.18378000e+01 1.20112000e+01	N
atom  1.17531000e+00 1.33882000e+01 1.42409000e+01	N
atom  1.60580000e+00 1.45412000e+01 1.15998000e+01	N
atom  7.78083000e-01 1.50262000e+01 1.00206000e+01	Si
atom  -1.91841000e-01 1.08954000e+01 1.12585000e+01	Si
atom  -2.71649000e-01 1.63667000e+01 1.03359000e+01	N
atom  4.20293000e-01 1.78306000e+01 1.11102000e+01	Si
atom  8.46208000e-01 1.72071000e+01 1.26628000e+01	N
atom  2.07112000e-01 1.85902000e+01 1.35484000e+01	Si
atom  1.18380000e+00 1.98555000e+01 1.40407000e+01	N
atom  -9.73835000e-02 1.93070000e+01 1.18693000e+01	N
atom  1.60019000e+00 1.24256000e+01 1.78655000e+01	Si
atom  1.31155000e+00 1.20402000e+01 1.53470000e+01	Si
atom  4.82940000e-01 1.15965000e+01 1.67594000e+01	N
atom  7.80074000e-01 1.38597000e+01 1.83887000e+01	N
atom  -5.35174000e-02 1.65546000e+01 1.77521000e+01	N
atom  7.25915000e-01 1.83441000e+01 1.94374000e+01	N
atom  1.62290000e+00 1.67823000e+01 1.73477000e+01	Si
atom  9.34048000e-01 1.29197000e+01 2.32322000e+01	N
atom  8.48700000e-01 1.23071000e+01 2.06214000e+01	N
atom  1.44167000e+00 1.38900000e+01 2.00641000e+01	Si
atom  -2.14131000e-01 1.23237000e+01 2.19731000e+01	Si
atom  9.32950000e-02 1.31030000e+01 2.47699000e+01	Si
atom  5.99466000e-01 1.52408000e+01 2.06791000e+01	N
atom  1.95941000e+00 1.09473000e+01 2.03907000e+01	Si
atom  1.57994000e-01 1.90534000e+01 2.34886000e+01	Si
atom  1.32597000e+00 1.67874000e+01 2.01326000e+01	Si
atom  1.69107000e+00 1.81866000e+01 2.36379000e+01	N
atom  1.69653000e+00 1.08571000e+01 2.57277000e+01	Si
atom  -4.31037000e-03 1.12067000e+01 2.74903000e+01	Si
atom  1.76547000e-01 1.17465000e+01 2.57986000e+01	N
atom  4.77969000e-02 1.27347000e+01 2.83327000e+01	N
atom  1.14542000e+00 1.42336000e+01 2.56831000e+01	N
atom  6.53230000e-01 1.40302000e+01 2.73631000e+01	Si
atom  1.87586000e+00 1.77638000e+01 2.84538000e+01	N
atom  1.18756000e+00 1.93410000e+01 2.62357000e+01	N
atom  5.45894000e-01 1.84765000e+01 2.76395000e+01	Si
atom  -1.11608000e-01 1.97964000e+01 2.85482000e+01	N
atom  6.64138000e-01 1.23972000e+01 3.37700000e+01	Si
atom  1.16385000e+00 1.39680000e+01 3.11470000e+01	Si
atom  4.12017000e-01 1.07798000e+01 3.33408000e+01	N
atom  1.70823000e+00 1.31595000e+01 3.27046000e+01	N
atom  8.76261000e-01 1.04694000e+01 3.03317000e+01	N
atom  1.49317000e+00 1.56615000e+01 3.09536000e+01	N
atom  1.23095000e+00 1.84580000e+01 3.10050000e+01	N
atom  4.18325000e-01 1.69505000e+01 3.08101000e+01	Si
atom  5.92715000e-01 2.02010000e+01 3.01000000e+01	Si
atom  1.93094000e+00 1.91839000e+01 3.24627000e+01	Si
atom  3.68956000e-01 1.17781000e+01 3.97029000e+01	Si
atom  -2.44012000e-01 1.39354000e+01 3.76810000e+01	Si
atom  2.23625000e-01 1.22948000e+01 3.81414000e+01	N
atom  2.90990000e-01 1.14174000e+01 3.66051000e+01	Si
atom  1.19972000e+00 1.24163000e+01 3.54680000e+01	N
atom  1.07269000e+00 1.51910000e+01 3.74995000e+01	N
atom  1.78441000e+00 1.07560000e+01 3.96806000e+01	N
atom  1.21784000e+00 1.80379000e+01 3.86852000e+01	N
atom  3.46273000e-02 1.61688000e+01 3.49276000e+01	N
atom  1.42612000e+00 1.58202000e+01 3.58306000e+01	Si
atom  3.74045000e-01 1.95514000e+01 3.83695000e+01	Si
atom  3.80808000e-01 1.64963000e+01 3.84682000e+01	Si
atom  1.46241000e+00 1.98272000e+01 3.69036000e+01	N
atom  2.32590000e-01 2.15249000e+01 2.11635000e+00	N
atom  7.28619000e-01 2.27997000e+01 3.28324000e+00	Si
atom  1.18165000e+00 2.42164000e+01 2.03251000e+00	N
atom  1.44996000e+00 2.08581000e+01 1.09417000e+00	Si
atom  3.32362000e-01 2.79664000e+01 1.00949000e+00	N
atom  1.17003000e+00 2.93791000e+01 3.43203000e+00	N
atom  1.58544000e+00 2.83539000e+01 2.10811000e+00	Si
atom  1.74987000e+00 2.47077000e+01 7.79615000e+00	N
atom  1.33412000e+00 2.21358000e+01 6.96539000e+00	N
atom  -2.31611000e-01 2.26322000e+01 6.63014000e+00	Si
atom  -4.25209000e-01 2.42269000e+01 5.95268000e+00	N
atom  1.19400000e+00 2.53182000e+01 9.26174000e+00	Si
atom  8.96109000e-01 2.53055000e+01 6.37970000e+00	Si
atom  1.69273000e+00 2.91942000e+01 7.83212000e+00	N
atom  -1.80209000e-01 2.93746000e+01 5.70492000e+00	N
atom  1.30460000e+00 2.84210000e+01 9.44269000e+00	Si
atom  8.82496000e-02 2.67891000e+01 6.71781000e+00	N
atom  9.27870000e-01 2.82827000e+01 6.55797000e+00	Si
atom  -4.93738000e-01 2.82194000e+01 9.75015000e+00	N
atom  6.94575000e-01 2.29409000e+01 1.11428000e+01	Si
atom  1.53243000e+00 2.20822000e+01 1.23630000e+01	N
atom  1.59596000e+00 2.42740000e+01 1.05338000e+01	N
atom  8.95844000e-01 2.17095000e+01 9.85398000e+00	N
atom  1.26629000e+00 2.03918000e+01 1.23600000e+01	Si
atom  -6.55692000e-02 2.73411000e+01 1.31556000e+01	Si
atom  1.58768000e+00 2.77916000e+01 1.35336000e+01	N
atom  -3.54396000e-03 2.36774000e+01 1.76130000e+01	Si
atom  2.17425000e-01 2.41459000e+01 1.92799000e+01	N
atom  1.29468000e+00 2.07074000e+01 1.83958000e+01	N
atom  1.57348000e+00 2.32605000e+01 1.70021000e+01	N
atom  1.77758000e+00 2.47672000e+01 1.95724000e+01	Si
atom  -5.51328000e-01 2.06872000e+01 1.83240000e+01	Si
atom  -2.23687000e-01 2.53239000e+01 1.52588000e+01	Si
atom  -1.65623000e-01 2.69796000e+01 1.95542000e+01	N
atom  1.38364000e+00 2.76014000e+01 1.89481000e+01	Si
atom  1.48566000e+00 2.52351000e+01 1.48292000e+01	N
atom  8.79809000e-01 2.88784000e+01 1.78984000e+01	N
atom  1.88554000e+00 2.99964000e+01 1.70225000e+01	Si
atom  4.78895000e-01 2.19722000e+01 2.09851000e+01	N
atom  1.24144000e+00 2.24009000e+01 2.37737000e+01	Si
atom  4.68015000e-01 2.07369000e+01 2.38548000e+01	N
atom  -2.53734000e-01 2.32764000e+01 2.42066000e+01	N
atom  1.55210000e+00 2.53696000e+01 2.11769000e+01	N
atom  -1.29390000e-01 2.57385000e+01 2.10172000e+01	Si
atom  -2.04173000e-01 2.97896000e+01 2.10896000e+01	N
atom  1.54942000e+00 3.01010000e+01 2.08980000e+01	Si
atom  -6.48110000e-03 2.64128000e+01 2.47012000e+01	N
atom  1.70781000e+00 2.66550000e+01 2.47313000e+01	Si
atom  6.82130000e-01 2.09137000e+01 2.55998000e+01	Si
atom  1.99777000e+00 2.20304000e+01 2.53283000e+01	N
atom  6.13787000e-01 2.83505000e+01 2.88993000e+01	Si
atom  7.98915000e-01 2.67646000e+01 2.95423000e+01	N
atom  -1.56266000e-01 2.97818000e+01 2.53611000e+01	N
atom  1.27140000e+00 2.92221000e+01 2.60870000e+01	Si
atom  1.15339000e+00 2.80709000e+01 2.73267000e+01	N
atom  3.46198000e-01 2.55362000e+01 2.74321000e+01	N
atom  1.73696000e+00 2.64896000e+01 2.77394000e+01	Si
atom  -4.11413000e-01 2.56343000e+01 2.89546000e+01	Si
atom  1.43865000e+00 2.20159000e+01 3.33588000e+01	Si
atom  4.47242000e-01 2.35029000e+01 3.11938000e+01	Si
atom  1.00083000e-01 2.30119000e+01 3.28122000e+01	N
atom  9.91107000e-01 2.19725000e+01 3.05131000e+01	N
atom  1.72455000e+00 2.46922000e+01 3.14125000e+01	N
atom  9.26391000e-01 2.03182000e+01 3.32536000e+01	N
atom  1.15436000e+00 2.73291000e+01 3.24445000e+01	N
atom  1.59366000e+00 2.63450000e+01 3.10661000e+01	Si
atom  1.04345000e+00 2.94942000e+01 3.01419000e+01	N
atom  -4.35681000e-01 2.74785000e+01 3.31761000e+01	Si
atom  1.21996000e+00 2.23381000e+01 3.72802000e+01	N
atom  3.02409000e-01 2.23408000e+01 3.87127000e+01	Si
atom  1.18097000e+00 2.35514000e+01 3.60651000e+01	Si
atom  6.68215000e-01 2.08177000e+01 3.94688000e+01	N
atom  5.27478000e-01 2.38414000e+01 3.94765000e+01	N
atom  -3.68723000e-01 2.52488000e+01 3.91359000e+01	Si
atom  5.41614000e-01 2.79222000e+01 3.92250000e+01	Si
atom  1.55398000e+00 2.75146000e+01 3.62031000e+01	N
atom  4.27192000e-01 2.64705000e+01 3.82656000e+01	N
atom  -2.76344000e-01 2.73801000e+01 3.61800000e+01	Si
atom  -1.43166000e-01 2.94763000e+01 3.87453000e+01	N
atom  8.42598000e-01 3.18716000e+01 1.90842000e+00	N
atom  1.60552000e+00 3.23896000e+01 3.38766000e+00	Si
atom  3.82092000e-01 3.18152000e+01 4.46979000e+00	N
atom  1.72572000e+00 3.41538000e+01 3.56847000e+00	N
atom  1.90586000e+00 3.12690000e+01 6.31564000e-01	Si
atom  -1.65363000e-01 3.02395000e+01 4.16858000e+00	Si
atom  6.23584000e-02 3.90129000e+01 6.17013000e-01	Si
atom  1.26594000e+00 3.77520000e+01 3.89567000e-01	N
atom  6.77447000e-01 3.98838000e+01 2.05430000e+00	N
atom  -4.68970000e-01 4.00030000e+01 3.31500000e+00	Si
atom  8.24343000e-01 3.32069000e+01 7.50026000e+00	Si
atom  1.10313000e+00 3.42185000e+01 8.86265000e+00	N
atom  1.11255000e+00 3.39111000e+01 5.97021000e+00	N
atom  2.10820000e+00 3.20724000e+01 8.00130000e+00	N
atom  -3.44321000e-01 3.31182000e+01 5.38229000e+00	Si
atom  5.67465000e-02 3.64302000e+01 4.93913000e+00	N
atom  -2.58359000e-01 3.97492000e+01 9.30777000e+00	N
atom  1.80156000e+00 3.61632000e+01 6.83561000e+00	N
atom  8.37759000e-01 3.71814000e+01 9.14414000e+00	N
atom  4.16180000e-01 3.80909000e+01 4.89821000e+00	Si
atom  1.48054000e+00 3.53878000e+01 5.14022000e+00	Si
atom  6.79695000e-02 3.84701000e+01 6.69904000e+00	N
atom  3.89996000e-01 3.69881000e+01 7.45916000e+00	Si
atom  1.14835000e+00 3.88280000e+01 9.82264000e+00	Si
atom  8.45626000e-01 3.45142000e+01 1.26122000e+01	Si
atom  1.52090000e+00 3.21731000e+01 1.07239000e+01	N
atom  -1.85379000e-01 3.22531000e+01 1.08110000e+01	Si
atom  1.60275000e+00 3.05759000e+01 1.14331000e+01	Si
atom  -3.40815000e-01 3.32154000e+01 1.22493000e+01	N
atom  1.84590000e+00 3.07178000e+01 1.31402000e+01	N
atom  -2.57093000e-01 3.05242000e+01 1.11663000e+01	N
atom  -1.18838000e-01 3.55754000e+01 1.36594000e+01	N
atom  1.27048000e+00 3.56217000e+01 1.13226000e+01	N
atom  1.27705000e+00 3.85172000e+01 1.15373000e+01	N
atom  2.80638000e-01 3.93582000e+01 1.25940000e+01	Si
atom  5.33526000e-01 3.55994000e+01 9.77042000e+00	Si
atom  2.36448000e-02 3.78052000e+01 1.48894000e+01	N
atom  -8.64218000e-02 3.20377000e+01 1.64578000e+01	Si
atom  -6.51806000e-02 3.29684000e+01 1.50472000e+01	N
atom  1.33638000e+00 3.16880000e+01 1.73036000e+01	N
atom  2.85914000e-01 3.47739000e+01 1.51899000e+01	Si
atom  4.28950000e-01 3.52021000e+01 1.81421000e+01	N
atom  1.71336000e+00 3.55472000e+01 1.57876000e+01	N
atom  1.48562000e+00 3.99860000e+01 1.79299000e+01	Si
atom  8.63233000e-01 3.85805000e+01 1.85897000e+01	N
atom  -3.03656000e-02 3.61040000e+01 1.96311000e+01	Si
atom  1.57844000e+00 3.71172000e+01 1.49020000e+01	Si
atom  1.38623000e+00 3.38210000e+01 2.31765000e+01	Si
atom  -3.40771000e-01 3.35333000e+01 2.30730000e+01	N
atom  1.94145000e-01 3.82396000e+01 2.38178000e+01	Si
atom  1.24320000e+00 3.67304000e+01 2.05286000e+01	N
atom  1.25824000e+00 3.67494000e+01 2.22576000e+01	Si
atom  1.64096000e+00 3.83764000e+01 2.28449000e+01	N
atom  -3.43060000e-01 3.67536000e+01 2.29371000e+01	N
atom  1.30723000e+00 3.38620000e+01 2.49804000e+01	N
atom  5.55194000e-01 3.43808000e+01 2.79240000e+01	Si
atom  1.32115000e-01 3.13473000e+01 2.84873000e+01	N
atom  1.80776000e+00 3.16133000e+01 2.82041000e+01	Si
atom  1.85595000e+00 3.32931000e+01 2.75161000e+01	N
atom  5.66049000e-01 3.51960000e+01 2.96974000e+01	N
atom  1.26382000e+00 3.93947000e+01 2.88151000e+01	Si
atom  8.71914000e-01 3.98747000e+01 2.70631000e+01	N
atom  1.76408000e+00 3.86144000e+01 2.64103000e+01	Si
atom  7.44258000e-01 3.68726000e+01 2.87231000e+01	Si
atom  5.53440000e-01 3.78330000e+01 2.54378000e+01	N
atom  1.42059000e-01 3.60217000e+01 2.73342000e+01	N
atom  -2.07825000e-02 3.83359000e+01 2.93277000e+01	N
atom  1.24842000e+00 3.41589000e+01 3.24437000e+01	N
atom  1.77862000e+00 3.50719000e+01 3.09354000e+01	Si
atom  4.61729000e-01 3.66176000e+01 3.39930000e+01	N
atom  1.34954000e-01 3.71334000e+01 3.23815000e+01	Si
atom  5.98686000e-01 3.97029000e+01 3.43053000e+01	N
atom  1.63387000e+00 3.67025000e+01 3.16087000e+01	N
atom  2.73611000e-01 3.01752000e+01 3.72868000e+01	Si
atom  4.76237000e-02 3.14783000e+01 3.50146000e+01	N
atom  8.61213000e-02 3.40911000e+01 3.67155000e+01	N
atom  1.15026000e+00 3.22178000e+01 3.93136000e+01	N
atom  1.70293000e+00 3.47361000e+01 3.68588000e+01	Si
atom  1.73431000e+00 3.11745000e+01 3.52408000e+01	Si
atom  1.75103000e+00 3.69982000e+01 3.51447000e+01	Si
atom  1.84316000e-02 3.74641000e+01 3.75083000e+01	Si
atom  4.70596000e-01 3.96470000e+01 3.59983000e+01	Si
atom  1.07397000e+00 3.61120000e+01 3.79630000e+01	N
atom  1.46970000e+00 3.82358000e+01 3.63953000e+01	N
atom  2.57392000e+00 4.44976000e+00 3.46570000e+00	N
atom  2.68289000e+00 2.92780000e+00 4.25665000e+00	Si
atom  2.62181000e+00 1.39360000e+00 3.41236000e+00	N
atom  2.19977000e+00 8.32853000e-01 1.88481000e+00	Si
atom  3.49722000e+00 4.36039000e+00 1.68173000e-01	N
atom  2.14941000e+00 1.98402000e+00 6.26053000e-01	N
atom  1.96796000e+00 3.57021000e+00 1.16107000e-01	Si
atom  3.12321000e+00 1.01296000e+01 4.57855000e+00	N
atom  2.86072000e+00 8.91986000e+00 1.61812000e+00	N
atom  3.19659000e+00 7.19633000e+00 4.22984000e+00	N
atom  3.63710000e+00 5.77616000e+00 3.20916000e+00	Si
atom  3.78493000e+00 6.07559000e+00 2.32447000e-01	Si
atom  3.99881000e+00 8.63003000e+00 4.79022000e+00	Si
atom  4.18188000e+00 6.64703000e+00 1.77033000e+00	N
atom  3.43055000e+00 2.74200000e-01 5.90490000e+00	N
atom  2.34545000e+00 4.89114000e+00 7.36693000e+00	N
atom  2.66387000e+00 1.60847000e+00 9.32740000e+00	Si
atom  2.62252000e+00 3.40579000e+00 6.61891000e+00	Si
atom  3.97239000e+00 3.19765000e+00 5.50512000e+00	N
atom  3.07237000e+00 2.17419000e+00 7.72999000e+00	N
atom  2.33686000e+00 9.39497000e+00 7.66097000e+00	Si
atom  3.96808000e+00 6.14840000e+00 9.19740000e+00	N
atom  2.35035000e+00 9.56054000e+00 9.41416000e+00	N
atom  3.36909000e+00 6.29927000e+00 7.51133000e+00	Si
atom  2.55117000e+00 7.78102000e+00 7.17192000e+00	N
atom  3.48958000e+00 3.88729000e+00 1.43223000e+01	N
atom  2.50189000e+00 4.43424000e+00 1.30455000e+01	Si
atom  4.09717000e+00 2.31385000e+00 1.00641000e+01	N
atom  3.62339000e+00 5.15576000e+00 1.19105000e+01	N
atom  3.10851000e+00 8.05175000e+00 1.25471000e+01	Si
atom  2.79582000e+00 5.87730000e+00 1.05113000e+01	Si
atom  2.83068000e+00 9.75885000e+00 1.18648000e+01	N
atom  2.22981000e+00 7.90704000e+00 1.40390000e+01	N
atom  2.28079000e+00 7.32759000e+00 1.12189000e+01	N
atom  3.65925000e+00 1.02258000e+01 1.03582000e+01	Si
atom  3.55234000e+00 3.34364000e+00 1.71646000e+01	N
atom  3.40978000e+00 1.22939000e+00 1.57260000e+01	N
atom  2.88348000e+00 2.87020000e+00 1.56014000e+01	Si
atom  3.94071000e+00 1.57340000e+00 1.73098000e+01	Si
atom  4.42129000e+00 7.39930000e+00 1.89889000e+01	Si
atom  2.78600000e+00 9.29356000e+00 1.50605000e+01	Si
atom  3.64779000e+00 5.87395000e+00 1.89236000e+01	N
atom  3.26690000e+00 9.67892000e+00 1.79941000e+01	Si
atom  2.28593000e+00 9.06154000e+00 1.66898000e+01	N
atom  3.42092000e+00 8.57353000e+00 1.98097000e+01	N
atom  2.62416000e+00 1.75582000e+00 2.39943000e+01	Si
atom  3.26103000e+00 9.35650000e-01 2.25744000e+01	N
atom  3.26987000e+00 4.60858000e+00 2.34144000e+01	Si
atom  2.19293000e+00 3.49543000e+00 2.41217000e+01	N
atom  3.93447000e+00 4.82141000e+00 2.18466000e+01	N
atom  2.98327000e+00 5.34453000e+00 2.04992000e+01	Si
atom  2.59536000e+00 6.26255000e+00 2.38584000e+01	N
atom  3.23118000e+00 8.58631000e+00 2.25319000e+01	N
atom  3.88771000e+00 7.46923000e+00 2.36496000e+01	Si
atom  4.05301000e+00 9.38378000e+00 2.12365000e+01	Si
atom  1.85368000e+00 6.64550000e+00 2.11623000e+01	N
atom  3.49144000e+00 9.23139000e-01 2.80586000e+01	N
atom  2.93222000e+00 3.49491000e+00 2.88475000e+01	N
atom  2.04745000e+00 2.04892000e+00 2.82923000e+01	Si
atom  2.87010000e+00 5.04933000e+00 2.64423000e+01	N
atom  2.67012000e+00 5.04738000e+00 2.82065000e+01	Si
atom  4.07089000e+00 6.65746000e-01 2.63754000e+01	Si
atom  4.03412000e+00 1.78238000e+00 2.50229000e+01	N
atom  3.37095000e+00 7.97096000e+00 2.80050000e+01	N
atom  3.89006000e+00 7.70271000e+00 2.54208000e+01	N
atom  2.52437000e+00 6.56435000e+00 2.57115000e+01	Si
atom  4.36872000e+00 7.45838000e+00 2.94464000e+01	Si
atom  4.08053000e+00 5.80583000e+00 2.88629000e+01	N
atom  2.76538000e+00 4.01900000e+00 3.16992000e+01	N
atom  3.44440000e+00 1.61555000e+00 3.05939000e+01	N
atom  3.68440000e+00 3.33041000e+00 3.04085000e+01	Si
atom  3.64857000e+00 4.85720000e+00 3.29833000e+01	Si
atom  2.84479000e+00 4.52954000e+00 3.44636000e+01	N
atom  2.28653000e+00 5.63773000e-01 3.12882000e+01	Si
atom  3.24482000e+00 6.55128000e+00 3.26541000e+01	N
atom  2.95636000e+00 9.73244000e+00 3.31808000e+01	Si
atom  3.64903000e+00 8.56774000e+00 3.06151000e+01	N
atom  3.01406000e+00 2.75970000e+00 3.64583000e+01	N
atom  3.56542000e+00 4.28433000e+00 3.59666000e+01	Si
atom  4.02038000e+00 1.67913000e+00 3.55372000e+01	Si
atom  2.95219000e+00 3.41869000e-01 3.55440000e+01	N
atom  3.90539000e+00 2.55265000e-01 3.95746000e+01	Si
atom  3.02826000e+00 8.48589000e+00 3.75127000e+01	N
atom  2.34973000e+00 1.00454000e+01 3.81645000e+01	Si
atom  3.46680000e+00 5.56914000e+00 3.71307000e+01	N
atom  2.26835000e+00 6.76253000e+00 3.96230000e+01	N
atom  3.86283000e+00 9.53628000e+00 3.63391000e+01	Si
atom  2.85209000e+00 9.69713000e+00 3.49685000e+01	N
atom  2.49925000e+00 6.92055000e+00 3.78578000e+01	Si
atom  3.27552000e+00 1.42449000e+01 3.45941000e+00	Si
atom  2.75092000e+00 1.06157000e+01 1.19235000e+00	Si
atom  3.86955000e+00 1.32957000e+01 5.93867000e-01	Si
atom  2.57853000e+00 1.41981000e+01 3.06428000e-02	N
atom  4.15073000e+00 1.16231000e+01 9.53115000e-01	N
atom  3.34300000e+00 1.30854000e+01 4.78912000e+00	N
atom  3.88961000e+00 1.55791000e+01 4.37036000e+00	N
atom  2.42012000e+00 1.68368000e+01 1.24149000e+00	N
atom  2.46630000e+00 1.94107000e+01 1.30985000e+00	N
atom  3.62110000e+00 1.81349000e+01 1.71419000e+00	Si
atom  3.64906000e+00 1.49398000e+01 8.54184000e+00	Si
atom  2.55406000e+00 1.10579000e+01 6.99664000e+00	N
atom  3.21675000e+00 1.22180000e+01 8.29997000e+00	Si
atom  3.57252000e+00 1.14931000e+01 5.57361000e+00	Si
atom  4.05611000e+00 1.45568000e+01 5.87130000e+00	Si
atom  3.95235000e+00 1.35365000e+01 7.50444000e+00	N
atom  2.03450000e+00 1.25704000e+01 9.46139000e+00	N
atom  2.03021000e+00 1.61120000e+01 7.00170000e+00	Si
atom  3.35660000e+00 1.81999000e+01 4.77716000e+00	N
atom  2.56794000e+00 2.01788000e+01 8.24344000e+00	N
atom  3.80479000e+00 1.59771000e+01 6.99511000e+00	N
atom  1.88728000e+00 1.53078000e+01 8.66714000e+00	N
atom  3.59681000e+00 1.24543000e+01 1.22554000e+01	N
atom  2.68480000e+00 1.33006000e+01 1.09411000e+01	Si
atom  2.51122000e+00 1.12402000e+01 1.27841000e+01	Si
atom  3.84890000e+00 1.43308000e+01 1.01310000e+01	N
atom  2.02028000e+00 1.07682000e+01 1.43842000e+01	N
atom  2.78918000e+00 1.57184000e+01 1.38983000e+01	N
atom  3.39430000e+00 1.68026000e+01 1.13119000e+01	N
atom  2.71271000e+00 1.95287000e+01 1.18750000e+01	N
atom  3.04285000e+00 1.83341000e+01 1.05859000e+01	Si
atom  3.55739000e+00 1.83729000e+01 1.42979000e+01	N
atom  2.17232000e+00 1.60007000e+01 1.23151000e+01	Si
atom  4.05172000e+00 1.94655000e+01 1.29947000e+01	Si
atom  2.60924000e+00 1.42623000e+01 1.49731000e+01	Si
atom  3.27946000e+00 1.33834000e+01 1.87135000e+01	N
atom  2.56375000e+00 1.28364000e+01 1.63760000e+01	N
atom  3.38090000e+00 1.50050000e+01 1.79593000e+01	Si
atom  2.14074000e+00 1.08429000e+01 1.87008000e+01	N
atom  4.07036000e+00 1.26627000e+01 1.72537000e+01	Si
atom  2.56408000e+00 1.53802000e+01 1.64140000e+01	N
atom  3.35391000e+00 1.86368000e+01 1.88057000e+01	N
atom  3.82464000e+00 1.71353000e+01 1.96897000e+01	Si
atom  2.40425000e+00 1.62219000e+01 1.88208000e+01	N
atom  2.02030000e+00 1.95273000e+01 1.94605000e+01	Si
atom  1.91256000e+00 1.78294000e+01 1.60031000e+01	N
atom  2.36539000e+00 1.93141000e+01 1.52199000e+01	Si
atom  3.21652000e+00 1.68584000e+01 1.51180000e+01	Si
atom  2.84435000e+00 1.40576000e+01 2.11902000e+01	N
atom  3.43525000e+00 1.09829000e+01 2.13629000e+01	N
atom  3.72759000e+00 1.29953000e+01 2.33886000e+01	N
atom  2.36323000e+00 1.38046000e+01 2.28032000e+01	Si
atom  4.15843000e+00 1.40573000e+01 2.01170000e+01	Si
atom  2.20133000e+00 1.54428000e+01 2.35038000e+01	N
atom  2.67206000e+00 1.71732000e+01 2.10947000e+01	N
atom  2.64697000e+00 1.70103000e+01 2.28015000e+01	Si
atom  4.00591000e+00 1.30345000e+01 2.51455000e+01	Si
atom  3.34127000e+00 1.38939000e+01 2.89146000e+01	Si
atom  3.43486000e+00 1.09488000e+01 2.92296000e+01	N
atom  2.94881000e+00 1.20127000e+01 2.60907000e+01	N
atom  3.68150000e+00 1.14649000e+01 2.75765000e+01	Si
atom  4.06830000e+00 1.46825000e+01 2.55466000e+01	N
atom  2.08643000e+00 1.47852000e+01 2.80797000e+01	N
atom  2.42484000e+00 1.52692000e+01 2.51645000e+01	Si
atom  2.53241000e+00 1.64450000e+01 2.77050000e+01	Si
atom  4.22185000e+00 1.66707000e+01 2.77854000e+01	N
atom  2.31845000e+00 2.02565000e+01 2.96545000e+01	N
atom  2.12371000e+00 1.67472000e+01 2.60234000e+01	N
atom  2.25043000e+00 1.83551000e+01 2.53618000e+01	Si
atom  3.94020000e+00 1.87349000e+01 2.55826000e+01	N
atom  2.72570000e+00 1.85643000e+01 2.97276000e+01	Si
atom  3.13522000e+00 1.10128000e+01 3.19829000e+01	N
atom  3.39417000e+00 1.26308000e+01 3.26788000e+01	Si
atom  3.78000000e+00 1.26955000e+01 3.43773000e+01	N
atom  2.33484000e+00 1.14002000e+01 3.04219000e+01	Si
atom  2.32646000e+00 1.31049000e+01 3.01134000e+01	N
atom  3.75007000e+00 1.51939000e+01 3.25548000e+01	N
atom  4.26660000e+00 1.52725000e+01 3.42145000e+01	Si
atom  2.35232000e+00 1.76467000e+01 3.31459000e+01	N
atom  2.74783000e+00 1.64401000e+01 3.18825000e+01	Si
atom  3.63069000e+00 1.72390000e+01 3.06429000e+01	N
atom  3.41395000e+00 2.00743000e+01 3.21194000e+01	N
atom  3.20251000e+00 1.78484000e+01 3.46356000e+01	Si
atom  3.80453000e+00 1.94538000e+01 3.47633000e+01	N
atom  2.82721000e+00 1.50527000e+01 3.51175000e+01	N
atom  2.68715000e+00 1.32779000e+01 3.55607000e+01	Si
atom  3.18659000e+00 1.34236000e+01 3.71714000e+01	N
atom  3.84666000e+00 1.08289000e+01 3.75567000e+01	N
atom  2.63884000e+00 1.46278000e+01 3.82734000e+01	Si
atom  3.56307000e+00 1.60885000e+01 3.82088000e+01	N
atom  3.99087000e+00 1.85775000e+01 3.74705000e+01	N
atom  2.29915000e+00 1.83976000e+01 3.73416000e+01	Si
atom  2.15340000e+00 1.74518000e+01 3.59471000e+01	N
atom  3.55033000e+00 2.42878000e+01 3.27652000e+00	N
atom  2.71241000e+00 2.21193000e+01 7.44685000e-01	N
atom  2.00672000e+00 2.36823000e+01 4.65119000e-01	Si
atom  2.79283000e+00 2.38955000e+01 4.78019000e+00	Si
atom  1.89002000e+00 2.24690000e+01 4.38268000e+00	N
atom  2.98149000e+00 2.51548000e+01 5.15440000e-01	N
atom  2.58509000e+00 2.53303000e+01 2.22311000e+00	Si
atom  2.53050000e+00 2.96743000e+01 1.11363000e+00	N
atom  3.91902000e+00 2.90671000e+01 3.56767000e+00	N
atom  2.85283000e+00 2.67691000e+01 4.54695000e+00	Si
atom  2.32264000e+00 2.69056000e+01 2.82517000e+00	N
atom  2.55982000e+00 2.94794000e+01 4.53726000e+00	Si
atom  3.43369000e+00 2.88018000e+01 -1.89812000e-01	Si
atom  3.84304000e+00 2.35765000e+01 6.05939000e+00	N
atom  3.82740000e+00 2.09305000e+01 5.91228000e+00	N
atom  3.42005000e+00 2.42172000e+01 7.63468000e+00	Si
atom  3.55156000e+00 2.28100000e+01 8.69249000e+00	N
atom  2.13038000e+00 2.18008000e+01 8.64680000e+00	Si
atom  2.14362000e+00 2.12665000e+01 5.69392000e+00	Si
atom  3.64367000e+00 2.65683000e+01 8.96074000e+00	Si
atom  1.99122000e+00 2.68677000e+01 9.31217000e+00	N
atom  2.29838000e+00 2.80854000e+01 5.51168000e+00	N
atom  2.01212000e+00 2.53859000e+01 5.11769000e+00	N
atom  4.12345000e+00 2.58062000e+01 7.50694000e+00	N
atom  3.14326000e+00 2.45714000e+01 1.11849000e+01	Si
atom  3.05277000e+00 2.25097000e+01 1.31189000e+01	Si
atom  3.89358000e+00 2.10112000e+01 1.36630000e+01	N
atom  4.02357000e+00 2.32616000e+01 1.19853000e+01	N
atom  2.76432000e+00 2.56196000e+01 1.25038000e+01	N
atom  2.44103000e+00 2.63392000e+01 1.39627000e+01	Si
atom  2.34995000e+00 2.93687000e+01 1.05165000e+01	N
atom  2.45019000e+00 2.92434000e+01 1.38390000e+01	Si
atom  4.02495000e+00 2.67626000e+01 1.45887000e+01	N
atom  4.11574000e+00 2.91575000e+01 1.31160000e+01	N
atom  4.09447000e+00 2.94336000e+01 9.82772000e+00	Si
atom  3.21019000e+00 2.31184000e+01 1.47135000e+01	N
atom  3.87298000e+00 2.16291000e+01 1.52843000e+01	Si
atom  3.85833000e+00 2.15995000e+01 1.82104000e+01	N
atom  2.45280000e+00 2.42345000e+01 1.58304000e+01	Si