lattice_vector  3.98925172e+01 0.00000000e+00 0.00000000e+00
lattice_vector  2.44271217e-15 3.98925172e+01 0.00000000e+00
lattice_vector  2.44271217e-15 2.44271217e-15 3.98925172e+01
atom  1.17237000e+00 1.86241000e+00 1.91979000e+00	N
atom  3.83874000e+00 1.00349000e+00 2.67754000e+00	N
atom  2.86881000e+00 2.31102000e+00 1.85570000e+00	Si
atom  3.35554000e+00 2.54279000e+00 1.78737000e-01	N
atom  4.56709000e+00 1.17520000e+00 4.23840000e+00	Si
atom  8.85292000e+00 1.21101000e+00 2.85091000e+00	N
atom  6.72664000e+00 9.35816000e-01 1.20143000e+00	N
atom  6.30178000e+00 5.87069000e-01 4.15523000e+00	N
atom  9.44464000e+00 2.29749000e+00 4.19342000e+00	Si
atom  7.50274000e+00 2.49738000e+00 1.26868000e+00	Si
atom  2.98437000e+00 1.79923000e+00 6.82097000e+00	Si
atom  3.46624000e+00 8.35737000e-01 8.22716000e+00	N
atom  3.38130000e+00 7.69565000e-01 5.49177000e+00	N
atom  -1.01704000e-01 1.92814000e+00 6.33955000e+00	Si
atom  1.44500000e+00 2.50965000e+00 6.60087000e+00	N
atom  5.71933000e+00 1.66049000e+00 9.52022000e+00	N
atom  8.65233000e+00 7.37210000e-01 9.28967000e+00	N
atom  5.21500000e+00 7.50882000e-01 8.15097000e+00	Si
atom  7.12451000e+00 4.76748000e-01 5.68612000e+00	Si
atom  6.03956000e+00 1.43551000e+00 6.72200000e+00	N
atom  8.84547000e+00 1.21767000e+00 5.55616000e+00	N
atom  7.33299000e+00 3.39686000e-01 2.74039000e+00	Si
atom  3.26881000e+00 1.81646000e+00 1.24448000e+01	Si
atom  3.21956000e+00 1.82831000e+00 1.07118000e+01	N
atom  1.30016000e+00 1.56274000e+00 1.23907000e+01	N
atom  3.11225000e+00 2.46991000e+00 1.40534000e+01	N
atom  9.20402000e+00 2.11150000e+00 1.35823000e+01	N
atom  7.56351000e+00 1.92567000e+00 1.29560000e+01	Si
atom  7.22667000e+00 1.20350000e+00 1.01474000e+01	Si
atom  7.71944000e+00 2.49877000e+00 1.13008000e+01	N
atom  6.86519000e+00 5.28337000e-01 1.36445000e+01	N
atom  4.91693000e+00 2.82513000e+00 1.21710000e+01	N
atom  4.70267000e+00 2.75485000e+00 1.04548000e+01	Si
atom  7.78509000e+00 2.25804000e+00 1.90201000e+01	N
atom  1.49349000e+00 6.12475000e-01 1.84450000e+01	N
atom  4.23151000e+00 7.14059000e-01 1.81916000e+01	N
atom  2.92012000e+00 1.02175000e+00 1.51084000e+01	Si
atom  2.38718000e+00 2.03426000e+00 1.64287000e+01	N
atom  2.80003000e+00 1.62076000e+00 1.80911000e+01	Si
atom  9.28247000e+00 7.19951000e-01 1.92110000e+01	Si
atom  6.89122000e+00 8.21867000e-01 1.66786000e+01	N
atom  7.15028000e+00 2.39986000e+00 1.73223000e+01	Si
atom  1.87236000e-01 2.91865000e+00 1.20899000e+01	Si
atom  3.34780000e+00 1.35602000e+00 2.24265000e+01	Si
atom  2.05995000e+00 1.18966000e+00 2.34560000e+01	N
atom  8.14159000e-01 2.30182000e+00 2.38505000e+01	Si
atom  2.95392000e+00 5.24750000e-01 2.08695000e+01	N
atom  4.37209000e+00 4.03254000e-01 1.98629000e+01	Si
atom  4.88870000e+00 7.48240000e-01 2.30373000e+01	N
atom  8.22788000e+00 9.38802000e-01 2.33169000e+01	Si
atom  5.40485000e+00 1.71706000e+00 2.02898000e+01	N
atom  7.06369000e+00 1.23615000e+00 2.02145000e+01	Si
atom  7.26100000e+00 8.09350000e-01 2.19003000e+01	N
atom  9.10484000e+00 2.43815000e+00 2.32823000e+01	N
atom  5.47669000e+00 9.61215000e-01 2.46980000e+01	Si
atom  7.20768000e+00 1.08422000e+00 2.46998000e+01	N
atom  2.84095000e+00 9.08776000e-01 2.68851000e+01	N
atom  3.97386000e+00 2.24120000e+00 2.70076000e+01	Si
atom  1.41816000e+00 1.25197000e+00 2.79020000e+01	Si
atom  -1.45348000e-02 1.88818000e+00 2.70476000e+01	N
atom  2.00913000e+00 2.21209000e+00 2.93582000e+01	N
atom  9.57841000e+00 2.59047000e+00 2.86512000e+01	N
atom  4.94449000e+00 2.34715000e+00 2.56013000e+01	N
atom  8.17357000e+00 1.23397000e+00 2.61587000e+01	Si
atom  7.20650000e+00 1.57106000e+00 2.75483000e+01	N
atom  6.21280000e+00 1.23354000e+00 2.89237000e+01	Si
atom  4.71230000e+00 1.92766000e+00 2.85740000e+01	N
atom  1.06393000e+00 2.18458000e+00 3.08647000e+01	Si
atom  3.74328000e-02 1.50743000e+00 3.38787000e+01	N
atom  4.12899000e+00 1.32418000e+00 3.40517000e+01	N
atom  3.71454000e+00 2.38575000e+00 3.26999000e+01	Si
atom  8.98695000e-01 5.15896000e-01 3.13739000e+01	N
atom  4.38793000e+00 1.57965000e+00 3.12987000e+01	N
atom  3.66333000e+00 2.44703000e+00 2.99187000e+01	Si
atom  6.81740000e+00 8.36264000e-01 3.73484000e+01	Si
atom  5.90331000e+00 1.46660000e+00 3.44606000e+01	Si
atom  7.04879000e+00 1.62773000e+00 3.04376000e+01	N
atom  6.43646000e+00 1.15759000e+00 3.28299000e+01	N
atom  9.19936000e+00 8.42790000e-01 3.44307000e+01	N
atom  8.40939000e+00 6.37895000e-01 3.07388000e+01	Si
atom  9.34651000e+00 2.06230000e+00 3.30902000e+01	Si
atom  5.81334000e+00 3.41763000e-01 3.12864000e+01	Si
atom  1.12799000e+00 2.10823000e+00 3.51764000e+01	Si
atom  1.98999000e+00 5.23979000e-01 3.55562000e+01	N
atom  1.51551000e-01 2.56918000e+00 3.65258000e+01	N
atom  6.17824000e+00 3.42009000e-01 3.57851000e+01	N
atom  5.70828000e+00 1.46397000e+00 3.85549000e+01	N
atom  8.17558000e+00 1.82753000e+00 3.68645000e+01	N
atom  6.81118000e+00 2.63821000e+00 3.19213000e+01	Si
atom  3.35136000e+00 3.79972000e+00 2.55219000e+00	N
atom  3.63204000e+00 4.03822000e+00 4.23001000e+00	Si
atom  4.85774000e-01 4.48843000e+00 2.07493000e+00	N
atom  -3.06726000e-01 2.89376000e+00 1.97481000e+00	Si
atom  1.11255000e+00 5.22798000e+00 3.63692000e+00	Si
atom  6.24782000e+00 4.87708000e+00 1.25151000e+00	Si
atom  9.14022000e+00 4.01480000e+00 4.32863000e+00	N
atom  8.81208000e+00 3.57013000e+00 1.43904000e+00	N
atom  6.07084000e+00 3.28919000e+00 6.99697000e-01	N
atom  8.68769000e+00 4.63117000e+00 2.77719000e+00	Si
atom  6.94735000e+00 4.71305000e+00 2.88712000e+00	N
atom  4.77092000e+00 2.84695000e+00 4.64593000e+00	N
atom  2.08878000e+00 4.54865000e+00 4.87122000e+00	N
atom  1.90968000e+00 4.33729000e+00 6.69303000e+00	Si
atom  3.53933000e+00 4.42634000e+00 8.42222000e+00	Si
atom  3.98533000e+00 3.19755000e+00 7.18524000e+00	N
atom  1.86613000e+00 4.09410000e+00 8.75355000e+00	N
atom  3.90870000e-01 4.51279000e+00 9.54500000e+00	Si
atom  6.50914000e+00 4.33047000e+00 6.14952000e+00	N
atom  5.45766000e+00 2.99932000e+00 6.24535000e+00	Si
atom  7.42478000e+00 4.83158000e+00 9.36061000e+00	N
atom  4.70928000e+00 4.36448000e+00 9.71888000e+00	N
atom  7.92953000e-01 4.27726000e+00 1.12542000e+01	N
atom  3.01579000e+00 4.10484000e+00 1.44126000e+01	Si
atom  1.47322000e+00 4.70107000e+00 1.38548000e+01	N
atom  4.33601000e+00 4.86334000e+00 1.36341000e+01	N
atom  6.42453000e-02 4.31359000e+00 1.47553000e+01	Si
atom  -5.59421000e-01 3.12708000e+00 1.36169000e+01	N
atom  5.74896000e+00 4.10233000e+00 1.29897000e+01	Si
atom  8.49259000e+00 3.90011000e+00 1.05006000e+01	Si
atom  6.97388000e+00 3.36804000e+00 1.39068000e+01	N
atom  9.26062000e+00 5.08108000e+00 1.43462000e+01	N
atom  1.86069000e+00 3.60524000e+00 1.69274000e+01	Si
atom  2.97417000e+00 4.60759000e+00 1.60761000e+01	N
atom  2.43624000e+00 3.32485000e+00 1.85383000e+01	N
atom  2.83737000e-01 3.61031000e+00 1.62931000e+01	N
atom  2.91585000e+00 4.69120000e+00 1.94014000e+01	Si
atom  4.65898000e+00 4.60018000e+00 1.96292000e+01	N
atom  5.63009000e+00 3.20870000e+00 1.73063000e+01	N
atom  8.50332000e+00 3.85133000e+00 1.95895000e+01	Si
atom  8.33666000e+00 3.42844000e+00 1.64794000e+01	N
atom  7.73406000e+00 4.42372000e+00 1.50905000e+01	Si
atom  7.31347000e+00 4.76169000e+00 1.87573000e+01	N
atom  5.66969000e+00 4.64279000e+00 1.82199000e+01	Si
atom  9.53997000e+00 4.46503000e+00 1.18602000e+01	N
atom  2.25881000e+00 4.21431000e+00 2.22269000e+01	Si
atom  7.75969000e-01 3.34004000e+00 2.24327000e+01	N
atom  3.49677000e+00 3.07359000e+00 2.18173000e+01	N
atom  6.13401000e+00 4.34649000e+00 2.15677000e+01	N
atom  8.96079000e+00 4.16020000e+00 2.12327000e+01	N
atom  4.92402000e+00 3.32930000e+00 2.08905000e+01	Si
atom  7.63854000e+00 4.67078000e+00 2.39546000e+01	N
atom  7.64806000e+00 4.73156000e+00 2.22749000e+01	Si
atom  9.01765000e+00 3.73251000e+00 2.45113000e+01	Si
atom  4.80355000e+00 5.11905000e+00 2.43731000e+01	N
atom  9.75964000e-01 3.57186000e+00 2.51379000e+01	N
atom  3.81915000e+00 3.96798000e+00 2.71413000e+01	N
atom  -1.21750000e-01 4.83111000e+00 2.75307000e+01	N
atom  -1.44032000e-01 3.48228000e+00 2.64718000e+01	Si
atom  3.77732000e+00 4.92637000e+00 2.85084000e+01	Si
atom  8.10217000e+00 3.10567000e+00 2.78086000e+01	Si
atom  4.92793000e+00 4.11543000e+00 2.57963000e+01	Si
atom  8.61403000e+00 3.03478000e+00 2.61219000e+01	N
atom  7.27202000e+00 4.37460000e+00 2.85553000e+01	N
atom  2.03585000e+00 4.38248000e+00 3.31543000e+01	Si
atom  3.88245000e+00 4.14354000e+00 3.00640000e+01	N
atom  2.16760000e+00 2.85676000e+00 3.20751000e+01	N
atom  3.64968000e-01 4.94813000e+00 3.33115000e+01	N
atom  4.36650000e+00 3.95697000e+00 3.31190000e+01	N
atom  2.19765000e+00 3.38495000e+00 3.46515000e+01	N
atom  4.54416000e+00 4.86290000e+00 3.15750000e+01	Si
atom  6.27656000e+00 4.18898000e+00 3.14158000e+01	N
atom  8.06530000e+00 3.19260000e+00 3.29414000e+01	N
atom  5.35538000e+00 4.35459000e+00 3.43999000e+01	Si
atom  9.07837000e+00 4.28128000e+00 3.06409000e+01	N
atom  7.42352000e+00 4.68346000e+00 3.02207000e+01	Si
atom  8.13985000e+00 4.85041000e+00 3.36855000e+01	Si
atom  9.61331000e+00 4.00653000e+00 3.86691000e+01	N
atom  2.81987000e+00 4.53424000e+00 3.57648000e+01	Si
atom  5.21986000e-01 4.13589000e+00 3.72930000e+01	Si
atom  2.78418000e+00 3.97099000e+00 3.88852000e+01	Si
atom  2.20703000e+00 4.12387000e+00 3.72976000e+01	N
atom  3.76557000e-01 4.31595000e+00 3.90653000e+01	N
atom  4.53246000e+00 4.67531000e+00 3.58334000e+01	N
atom  4.47161000e+00 4.19530000e+00 3.85009000e+01	N
atom  8.90096000e+00 4.23037000e+00 3.51872000e+01	N
atom  6.98836000e+00 4.37373000e+00 3.73951000e+01	N
atom  6.42373000e+00 3.01821000e+00 3.50126000e+01	N
atom  7.64746000e+00 3.37083000e+00 3.61234000e+01	Si
atom  4.98300000e+00 2.76846000e+00 3.93767000e+01	Si
atom  2.40042000e+00 6.30815000e+00 2.91766000e+00	N
atom  3.62647000e+00 6.99442000e+00 4.08630000e+00	Si
atom  4.99219000e-01 6.87091000e+00 5.77855000e-01	N
atom  3.30868000e+00 5.35973000e+00 1.71328000e+00	Si
atom  8.01261000e-01 5.22428000e+00 5.83412000e-01	Si
atom  2.53704000e+00 5.08930000e+00 2.61447000e-01	N
atom  4.66161000e+00 5.54415000e+00 4.31247000e+00	N
atom  4.95134000e+00 6.02474000e+00 1.40849000e+00	N
atom  9.24700000e+00 6.27494000e+00 2.53926000e+00	N
atom  7.57090000e+00 5.51194000e+00 1.15989000e-01	N
atom  8.42880000e+00 6.76620000e+00 9.24039000e-01	Si
atom  8.04608000e+00 7.24635000e+00 3.36640000e+00	Si
atom  6.30905000e+00 5.13392000e+00 4.59168000e+00	Si
atom  1.95521000e-02 6.16474000e+00 9.36296000e+00	N
atom  3.11730000e+00 5.72242000e+00 7.23900000e+00	N
atom  1.61365000e-01 6.72615000e+00 7.78448000e+00	Si
atom  5.31147000e-01 5.32620000e+00 6.78579000e+00	N
atom  2.81619000e+00 7.42471000e+00 6.95870000e+00	Si
atom  7.17160000e+00 6.63524000e+00 4.73788000e+00	N
atom  6.54423000e+00 6.71400000e+00 7.36395000e+00	N
atom  -4.09742000e-01 5.60091000e+00 4.36413000e+00	N
atom  7.33883000e+00 5.06925000e+00 7.54902000e+00	Si
atom  9.02559000e+00 4.99435000e+00 7.05757000e+00	N
atom  2.41698000e+00 6.64104000e+00 1.23730000e+01	N
atom  3.83402000e+00 6.50267000e+00 1.34176000e+01	Si
atom  1.04217000e+00 5.54531000e+00 1.23712000e+01	Si
atom  6.64993000e+00 6.52042000e+00 1.31197000e+01	Si
atom  5.66578000e+00 7.05563000e+00 1.00809000e+01	N
atom  6.06809000e+00 5.37901000e+00 1.02540000e+01	Si
atom  -3.60466000e-01 6.52801000e+00 1.22401000e+01	N
atom  9.45941000e+00 6.79913000e+00 1.37175000e+01	Si
atom  6.50765000e+00 5.27344000e+00 1.19192000e+01	N
atom  9.21926000e+00 6.43052000e+00 1.96574000e+01	N
atom  3.77243000e+00 6.99722000e+00 1.50957000e+01	N
atom  3.59703000e+00 6.17647000e+00 1.67458000e+01	Si
atom  2.70654000e+00 6.02492000e+00 1.82897000e+01	N
atom  7.71718000e+00 6.50904000e+00 1.87767000e+01	Si
atom  7.87256000e+00 6.92292000e+00 1.70961000e+01	N
atom  5.27498000e+00 5.90744000e+00 1.70893000e+01	N
atom  6.27218000e+00 6.92560000e+00 1.97288000e+01	N
atom  6.77634000e+00 5.92899000e+00 1.47461000e+01	N
atom  6.41621000e+00 6.83806000e+00 1.61369000e+01	Si
atom  5.94505000e-01 7.32366000e+00 1.93475000e+01	N
atom  3.77612000e+00 6.17940000e+00 2.34598000e+01	Si
atom  4.47103000e-01 5.96781000e+00 2.06264000e+01	Si
atom  2.23895000e+00 5.39169000e+00 2.34397000e+01	N
atom  -1.12477000e-01 7.16375000e+00 2.17787000e+01	N
atom  4.41642000e+00 6.36445000e+00 2.19482000e+01	N
atom  1.10087000e+00 5.21172000e+00 2.47126000e+01	Si
atom  1.92459000e+00 5.16171000e+00 2.07582000e+01	N
atom  -4.46755000e-01 7.21203000e+00 2.34598000e+01	Si
atom  7.36767000e+00 7.14347000e+00 2.78792000e+01	N
atom  7.85080000e+00 6.44210000e+00 2.20114000e+01	N
atom  5.41413000e+00 5.79256000e+00 2.06819000e+01	Si
atom  6.40409000e+00 5.69892000e+00 2.46588000e+01	Si
atom  -4.69918000e-02 7.45016000e+00 2.81133000e+01	N
atom  4.32971000e+00 7.43519000e+00 2.98516000e+01	Si
atom  1.65058000e+00 6.26002000e+00 2.61041000e+01	N
atom  9.47364000e-01 6.13188000e+00 2.76694000e+01	Si
atom  2.24696000e+00 5.70820000e+00 2.87594000e+01	N
atom  6.44972000e+00 5.80699000e+00 2.78025000e+01	Si
atom  4.93180000e+00 6.21868000e+00 2.86553000e+01	N
atom  9.30570000e+00 7.47011000e+00 2.56093000e+01	N
atom  6.31543000e+00 5.09084000e+00 2.62693000e+01	N
atom  1.27099000e-01 5.78152000e+00 3.02730000e+01	N
atom  1.85103000e+00 6.04905000e+00 3.04680000e+01	Si
atom  2.66963000e+00 5.62885000e+00 3.19773000e+01	N
atom  4.43834000e+00 7.09628000e+00 3.39900000e+01	N
atom  9.30088000e+00 5.93894000e+00 3.11761000e+01	Si
atom  4.87031000e+00 6.60742000e+00 3.12686000e+01	N
atom  7.78713000e+00 6.35231000e+00 3.04219000e+01	N
atom  6.60569000e+00 5.51035000e+00 3.40285000e+01	N
atom  6.13659000e+00 7.17033000e+00 3.41386000e+01	Si
atom  9.25806000e+00 5.89004000e+00 3.29473000e+01	N
atom  6.51010000e+00 7.25574000e+00 3.12665000e+01	Si
atom  -2.79956000e-01 5.36041000e+00 3.62540000e+01	N
atom  4.32583000e-01 5.89843000e+00 3.47592000e+01	Si
atom  2.13680000e+00 5.96038000e+00 3.50914000e+01	N
atom  8.42881000e+00 6.60710000e+00 3.76626000e+01	N
atom  8.19924000e+00 5.08476000e+00 3.84187000e+01	Si
atom  5.39417000e+00 6.80656000e+00 3.75944000e+01	N
atom  5.30689000e+00 5.06447000e+00 3.73613000e+01	Si
atom  3.52082000e+00 7.42703000e+00 3.23152000e+01	Si
atom  2.98372000e+00 7.45729000e+00 3.48642000e+01	Si
atom  2.05978000e+00 9.27913000e+00 1.23776000e+00	N
atom  3.56087000e+00 9.46962000e+00 2.83887000e-01	Si
atom  2.26772000e+00 9.45865000e+00 4.78107000e+00	Si
atom  1.67049000e+00 7.99067000e+00 6.54046000e-02	Si
atom  4.62574000e+00 8.16368000e+00 3.32797000e+00	N
atom  5.05656000e+00 9.20199000e+00 1.02728000e+00	N
atom  8.67174000e+00 8.76610000e+00 3.90465000e+00	N
atom  5.47513000e+00 7.70390000e+00 1.82683000e+00	Si
atom  5.18672000e+00 9.57212000e+00 4.14409000e+00	Si
atom  7.18475000e+00 7.55935000e+00 1.85029000e+00	N
atom  9.54631000e+00 7.65218000e+00 4.64894000e-02	N
atom  1.20416000e+00 9.26765000e+00 9.09311000e+00	Si
atom  1.37618000e+00 8.02773000e+00 7.68048000e+00	N
atom  4.11580000e+00 8.22863000e+00 7.87927000e+00	N
atom  2.67821000e+00 7.87019000e+00 5.26091000e+00	N
atom  9.99976000e-02 9.22322000e+00 6.79160000e+00	Si
atom  4.98457000e+00 9.52663000e+00 7.18300000e+00	Si
atom  5.81533000e+00 9.01570000e+00 5.68983000e+00	N
atom  6.42033000e+00 9.25964000e+00 8.23583000e+00	N
atom  8.45467000e+00 8.53545000e+00 6.57242000e+00	N
atom  5.67109000e+00 7.64066000e+00 8.46651000e+00	Si
atom  9.07462000e+00 9.08021000e+00 9.15683000e+00	N
atom  6.91325000e+00 7.73550000e+00 6.06397000e+00	Si
atom  8.11152000e+00 9.56816000e+00 7.87373000e+00	Si
atom  3.63841000e+00 8.84476000e+00 1.11166000e+01	N
atom  2.14411000e+00 8.18129000e+00 1.16491000e+01	Si
atom  8.21050000e-01 8.31862000e+00 1.05420000e+01	N
atom  1.52269000e+00 9.27564000e+00 1.28692000e+01	N
atom  3.86423000e+00 9.73800000e+00 1.45534000e+01	N
atom  5.29056000e+00 8.20972000e+00 1.13090000e+01	Si
atom  7.50155000e+00 9.34893000e+00 1.29834000e+01	Si
atom  6.41474000e+00 9.44349000e+00 1.16197000e+01	N
atom  7.98772000e+00 7.66510000e+00 1.31315000e+01	N
atom  3.44692000e+00 8.12033000e+00 1.72970000e+01	N
atom  4.23882000e+00 8.53936000e+00 1.57952000e+01	Si
atom  2.78373000e+00 9.09887000e+00 1.94379000e+01	N
atom  2.19259000e+00 7.67001000e+00 1.85363000e+01	Si
atom  4.09533000e+00 9.38480000e+00 1.83626000e+01	Si
atom  5.96029000e+00 8.48631000e+00 1.60741000e+01	N
atom  8.77983000e+00 9.48938000e+00 1.65183000e+01	N
atom  9.31497000e+00 7.77118000e+00 1.66546000e+01	Si
atom  8.05725000e+00 8.94213000e+00 1.92988000e+01	N
atom  5.18859000e+00 7.36535000e+00 1.27972000e+01	N
atom  8.13886000e-01 8.12401000e+00 2.42185000e+01	N
atom  2.39715000e-01 8.56990000e+00 2.06801000e+01	Si
atom  3.60094000e+00 7.67870000e+00 2.44431000e+01	N
atom  1.28123000e+00 9.54525000e+00 2.16618000e+01	N
atom  6.36984000e+00 8.82030000e+00 2.17627000e+01	N
atom  8.09409000e+00 9.23390000e+00 2.35228000e+01	N
atom  7.29904000e+00 7.80449000e+00 2.29320000e+01	Si
atom  5.04586000e+00 8.64276000e+00 2.46693000e+01	Si
atom  6.56251000e+00 8.60854000e+00 2.00634000e+01	Si
atom  2.16498000e+00 7.79811000e+00 2.53119000e+01	Si
atom  2.01352000e+00 8.90608000e+00 2.66879000e+01	N
atom  3.54380000e+00 9.37594000e+00 2.74112000e+01	Si
atom  4.27315000e+00 8.89903000e+00 2.89486000e+01	N
atom  5.02495000e-01 9.13703000e+00 2.75703000e+01	Si
atom  9.20449000e+00 8.67838000e+00 2.84274000e+01	N
atom  4.91430000e+00 9.12850000e+00 2.63486000e+01	N
atom  7.62641000e+00 9.58001000e+00 2.61798000e+01	N
atom  8.10815000e+00 7.90659000e+00 2.95567000e+01	Si
atom  8.41233000e+00 8.23064000e+00 2.69387000e+01	Si
atom  1.04538000e+00 9.61377000e+00 2.33555000e+01	Si
atom  5.60286000e+00 9.88077000e+00 2.94807000e+01	Si
atom  6.29021000e+00 7.41259000e+00 2.43112000e+01	N
atom  2.26939000e+00 8.37902000e+00 3.35778000e+01	N
atom  1.66710000e+00 9.14407000e+00 3.05248000e+01	Si
atom  6.15587000e-01 9.10099000e+00 3.43438000e+01	Si
atom  9.47329000e-02 8.44030000e+00 3.10226000e+01	N
atom  2.67665000e+00 7.71159000e+00 3.05405000e+01	N
atom  4.26800000e+00 8.99918000e+00 3.21886000e+01	N
atom  -1.29460000e-01 7.44618000e+00 3.42912000e+01	N
atom  6.70514000e+00 7.90468000e+00 3.56444000e+01	N
atom  8.09744000e+00 9.11801000e+00 3.26026000e+01	Si
atom  8.92263000e+00 8.40660000e+00 3.11823000e+01	N
atom  6.90754000e+00 7.88867000e+00 3.27967000e+01	N
atom  6.53031000e+00 8.54764000e+00 3.01040000e+01	N
atom  9.23085000e+00 8.12845000e+00 3.81907000e+01	Si
atom  1.67343000e+00 9.03226000e+00 3.71785000e+01	Si
atom  3.31910000e+00 7.98333000e+00 3.92427000e+01	N
atom  3.01676000e+00 8.10859000e+00 3.64551000e+01	N
atom  9.21645000e-01 8.98644000e+00 3.87350000e+01	N
atom  4.18712000e+00 8.07875000e+00 3.76659000e+01	Si
atom  4.20252000e-01 9.39504000e+00 3.61142000e+01	N
atom  4.96132000e+00 9.71518000e+00 3.79793000e+01	N
atom  9.32116000e+00 9.40098000e+00 3.69082000e+01	N
atom  7.43573000e+00 8.65356000e+00 3.84890000e+01	N
atom  7.01946000e+00 7.49253000e+00 3.72580000e+01	Si
atom  1.18548000e+00 1.06273000e+01 1.94790000e+00	Si
atom  1.13686000e+00 1.01336000e+01 3.66028000e+00	N
atom  7.94738000e-02 1.11030000e+01 4.65800000e+00	Si
atom  3.77892000e+00 1.03686000e+01 4.73264000e+00	N
atom  -4.07570000e-01 1.07967000e+01 1.19798000e+00	N
atom  4.76945000e+00 1.19593000e+01 1.88866000e+00	N
atom  8.56795000e+00 1.15881000e+01 4.50815000e+00	N
atom  6.85395000e+00 1.09652000e+01 2.18473000e-01	N
atom  8.82969000e+00 1.11583000e+01 2.06479000e+00	N
atom  5.81411000e+00 1.06842000e+01 1.54863000e+00	Si
atom  8.12609000e+00 1.03103000e+01 3.45213000e+00	Si
atom  8.49739000e+00 1.16495000e+01 4.47067000e-01	Si
atom  6.41793000e+00 1.02320000e+01 3.12898000e+00	N
atom  1.70902000e+00 1.02398000e+01 6.24313000e+00	N
atom  3.17238000e+00 1.12886000e+01 6.12167000e+00	Si
atom  4.30576000e+00 1.11342000e+01 7.37425000e+00	N
atom  -1.96992000e-01 1.00141000e+01 8.40407000e+00	N
atom  8.38298000e+00 1.12556000e+01 7.39251000e+00	N
atom  3.15544000e+00 1.14945000e+01 1.22591000e+01	N
atom  3.48460000e+00 1.05909000e+01 1.07964000e+01	Si
atom  2.68723000e+00 1.04061000e+01 1.35090000e+01	Si
atom  1.35312000e-01 1.02632000e+01 1.31616000e+01	Si
atom  2.70614000e-01 1.17497000e+01 1.22503000e+01	N
atom  1.49724000e+00 1.11893000e+01 1.44706000e+01	N
atom  1.13332000e+00 1.18628000e+01 1.06910000e+01	Si
atom  -4.49394000e-01 1.21078000e+01 9.93396000e+00	N
atom  7.06003000e+00 1.02319000e+01 1.43703000e+01	N
atom  6.27079000e+00 1.10857000e+01 1.10367000e+01	Si
atom  8.90687000e+00 1.02137000e+01 1.22546000e+01	N
atom  8.94204000e+00 1.01940000e+01 1.05060000e+01	Si
atom  6.18644000e+00 1.17951000e+01 1.41594000e+01	Si
atom  4.88704000e+00 1.12752000e+01 1.00193000e+01	N
atom  7.69552000e+00 1.12395000e+01 1.00713000e+01	N
atom  5.47588000e+00 9.80699000e+00 1.94243000e+01	N
atom  6.79497000e+00 1.11593000e+01 1.69485000e+01	N
atom  -1.61304000e-01 1.09618000e+01 1.88046000e+01	Si
atom  4.16932000e+00 1.06265000e+01 1.71876000e+01	N
atom  1.08715000e-01 1.07812000e+01 1.71115000e+01	N
atom  9.06407000e-01 1.18092000e+01 1.59806000e+01	Si
atom  5.32556000e+00 1.16499000e+01 1.78581000e+01	Si
atom  7.15755000e+00 9.73975000e+00 1.60578000e+01	Si
atom  2.06241000e+00 1.06295000e+01 9.85563000e+00	N
atom  3.74414000e+00 1.08130000e+01 2.13953000e+01	N
atom  3.82943000e+00 1.10437000e+01 2.31680000e+01	Si
atom  2.29177000e+00 1.04088000e+01 2.05725000e+01	Si
atom  2.39917000e+00 1.04743000e+01 2.39852000e+01	N
atom  5.43658000e+00 1.18631000e+01 2.59753000e+01	N
atom  1.23293000e+00 1.14787000e+01 1.96956000e+01	N
atom  5.17787000e+00 1.01285000e+01 2.37205000e+01	N
atom  5.27499000e+00 1.11522000e+01 2.06305000e+01	Si
atom  7.47816000e+00 1.15623000e+01 2.40714000e+01	N
atom  6.76883000e+00 1.14182000e+01 2.14576000e+01	N
atom  6.76329000e+00 1.02205000e+01 2.28080000e+01	Si
atom  9.42338000e+00 1.08503000e+01 2.11134000e+01	N
atom  8.47123000e+00 1.02718000e+01 2.47907000e+01	Si
atom  1.88208000e+00 1.13447000e+01 2.84749000e+01	Si
atom  3.30095000e+00 1.10944000e+01 2.75690000e+01	N
atom  1.25332000e+00 9.81160000e+00 2.90020000e+01	N
atom  7.12634000e-01 1.18829000e+01 2.73165000e+01	N
atom  6.12668000e+00 1.03032000e+01 2.66287000e+01	Si
atom  9.05275000e+00 1.13681000e+01 2.93854000e+01	N
atom  7.75752000e+00 1.19014000e+01 2.82928000e+01	Si
atom  6.55865000e+00 1.06994000e+01 2.82419000e+01	N
atom  1.59072000e+00 1.06509000e+01 3.42041000e+01	N
atom  2.02487000e+00 1.04405000e+01 3.15538000e+01	N
atom  4.16313000e+00 1.12768000e+01 3.31657000e+01	N
atom  2.89379000e+00 9.97523000e+00 3.30283000e+01	Si
atom  5.33075000e+00 1.10982000e+01 3.05973000e+01	N
atom  7.00182000e+00 1.05365000e+01 3.24669000e+01	N
atom  5.32554000e+00 1.03793000e+01 3.22121000e+01	Si
atom  9.36742000e+00 1.17774000e+01 3.19980000e+01	N
atom  7.80986000e+00 1.20875000e+01 3.26690000e+01	Si
atom  1.86810000e+00 1.16051000e+01 3.56507000e+01	Si
atom  2.48950000e+00 1.06504000e+01 3.70354000e+01	N
atom  3.85995000e+00 1.09709000e+01 3.80092000e+01	Si
atom  3.43928000e+00 1.10542000e+01 3.96751000e+01	N
atom  -3.59197000e-01 9.89171000e+00 3.95971000e+01	Si
atom  6.53818000e+00 1.00750000e+01 3.86558000e+01	Si
atom  7.23543000e+00 1.12653000e+01 3.76059000e+01	N
atom  8.94335000e+00 1.08823000e+01 3.76417000e+01	Si
atom  9.56533000e+00 1.08910000e+01 3.92208000e+01	N
atom  9.22673000e+00 9.78522000e+00 3.37986000e+01	N
atom  1.13583000e+00 1.38852000e+01 1.86372000e+00	Si
atom  7.30740000e-02 1.38834000e+01 4.91795000e-01	N
atom  3.40914000e+00 1.23627000e+01 9.08710000e-01	Si
atom  3.58998000e+00 1.38226000e+01 2.29171000e-01	N
atom  1.95157000e+00 1.22267000e+01 1.81836000e+00	N
atom  6.35781000e-01 1.43138000e+01 3.42002000e+00	N
atom  8.39182000e+00 1.40058000e+01 3.26215000e+00	N
atom  9.21087000e+00 1.25066000e+01 3.16174000e+00	Si
atom  8.85743000e+00 1.33919000e+01 2.94508000e-01	N
atom  5.61142000e+00 1.43328000e+01 3.84504000e+00	N
atom  7.25803000e+00 1.43542000e+01 4.49195000e+00	Si
atom  2.28957000e+00 1.40034000e+01 9.16739000e+00	Si
atom  3.24202000e+00 1.30025000e+01 5.73958000e+00	N
atom  3.94260000e+00 1.36963000e+01 9.11031000e+00	N
atom  1.61869000e+00 1.34642000e+01 6.34565000e+00	Si
atom  1.15040000e+00 1.33088000e+01 7.99648000e+00	N
atom  4.88847000e-01 1.26068000e+01 5.44108000e+00	N
atom  4.34463000e+00 1.42356000e+01 5.14197000e+00	Si
atom  -4.59823000e-01 1.33375000e+01 8.75099000e+00	Si
atom  8.93407000e+00 1.35523000e+01 9.10198000e+00	N
atom  8.76047000e+00 1.22750000e+01 6.04794000e+00	Si
atom  7.65761000e+00 1.36563000e+01 5.97043000e+00	N
atom  6.54136000e+00 1.43392000e+01 7.14993000e+00	Si
atom  6.29074000e+00 1.29583000e+01 8.11866000e+00	N
atom  4.76047000e+00 1.22416000e+01 8.57619000e+00	Si
atom  7.82570000e+00 1.22730000e+01 8.68920000e+00	Si
atom  1.76568000e+00 1.34640000e+01 1.07207000e+01	N
atom  3.67300000e+00 1.29586000e+01 1.30536000e+01	Si
atom  2.15178000e+00 1.36972000e+01 1.35104000e+01	N
atom  5.92185000e-01 1.28903000e+01 1.36569000e+01	Si
atom  4.25742000e+00 1.42827000e+01 1.20215000e+01	N
atom  -1.04016000e-01 1.43661000e+01 1.28412000e+01	N
atom  4.46635000e+00 1.22998000e+01 1.44035000e+01	N
atom  5.05511000e+00 1.23263000e+01 1.94182000e+01	N
atom  6.98784000e+00 1.36719000e+01 1.20730000e+01	Si
atom  8.72925000e+00 1.31857000e+01 1.21870000e+01	N
atom  6.50531000e+00 1.42419000e+01 1.05528000e+01	N
atom  2.42037000e+00 1.40362000e+01 1.75401000e+01	Si
atom  1.20335000e+00 1.40376000e+01 1.88779000e+01	N
atom  2.40549000e+00 1.26195000e+01 1.65304000e+01	N
atom  -2.92062000e-01 1.28490000e+01 1.51897000e+01	N
atom  4.46614000e+00 1.39060000e+01 1.96841000e+01	Si
atom  7.12438000e+00 1.30029000e+01 1.48762000e+01	N
atom  5.08317000e+00 1.30110000e+01 1.68131000e+01	N
atom  7.25593000e+00 1.42730000e+01 1.74030000e+01	N
atom  9.01989000e+00 1.33766000e+01 1.98294000e+01	N
atom  7.54326000e+00 1.27878000e+01 1.65350000e+01	Si
atom  9.22767000e+00 1.24411000e+01 1.69583000e+01	N
atom  6.32321000e+00 1.21499000e+01 1.24108000e+01	N
atom  3.88219000e+00 1.19760000e+01 1.60035000e+01	Si
atom  5.57771000e-01 1.34752000e+01 2.16934000e+01	N
atom  3.47422000e+00 1.39305000e+01 2.43304000e+01	Si
atom  3.25082000e+00 1.40267000e+01 2.08641000e+01	N
atom  1.82419000e-01 1.29312000e+01 2.45060000e+01	N
atom  3.71691000e-01 1.31001000e+01 2.00397000e+01	Si
atom  4.41355000e+00 1.26296000e+01 2.35863000e+01	N
atom  9.57543000e+00 1.38070000e+01 2.65428000e+01	Si
atom  5.96725000e+00 1.23901000e+01 2.43737000e+01	Si
atom  8.54619000e+00 1.34472000e+01 2.22190000e+01	N
atom  8.37097000e+00 1.31358000e+01 2.38823000e+01	Si
atom  6.84601000e+00 1.38549000e+01 2.43131000e+01	N
atom  8.28042000e+00 1.21399000e+01 2.09729000e+01	Si
atom  -9.17242000e-02 1.41320000e+01 2.69487000e+01	N
atom  4.06340000e+00 1.37986000e+01 2.79180000e+01	N
atom  3.93478000e+00 1.24960000e+01 2.67519000e+01	Si
atom  9.69066000e-01 1.30760000e+01 2.60032000e+01	Si
atom  2.65534000e+00 1.31266000e+01 2.57049000e+01	N
atom  3.39765000e+00 1.38298000e+01 2.95947000e+01	Si
atom  2.26532000e+00 1.25612000e+01 2.97153000e+01	N
atom  8.83190000e+00 1.22279000e+01 2.69133000e+01	N
atom  7.03111000e+00 1.32485000e+01 2.91465000e+01	N
atom  3.53014000e+00 1.27825000e+01 3.35849000e+01	Si
atom  2.22354000e+00 1.32110000e+01 3.25097000e+01	N
atom  -3.02870000e-01 1.35507000e+01 3.36168000e+01	N
atom  1.61317000e+00 1.20946000e+01 3.12657000e+01	Si
atom  -1.56364000e-01 1.22920000e+01 3.09378000e+01	N
atom  4.70980000e+00 1.37808000e+01 3.06967000e+01	N
atom  4.91065000e+00 1.37960000e+01 3.37640000e+01	N
atom  5.95708000e+00 1.26459000e+01 3.03834000e+01	Si
atom  6.83865000e+00 1.32373000e+01 3.18580000e+01	N
atom  5.49805000e+00 1.42088000e+01 3.21876000e+01	Si
atom  8.08624000e+00 1.24700000e+01 3.42424000e+01	N
atom  3.54057000e+00 1.36460000e+01 3.66905000e+01	Si
atom  2.88864000e+00 1.28863000e+01 3.52169000e+01	N
atom  2.11022000e+00 1.40697000e+01 3.75524000e+01	N
atom  2.53016000e-01 1.22311000e+01 3.60913000e+01	N
atom  4.55042000e+00 1.24403000e+01 3.73457000e+01	N
atom  8.39142000e+00 1.30627000e+01 3.57207000e+01	Si
atom  6.25053000e+00 1.27123000e+01 3.76183000e+01	Si
atom  6.57891000e+00 1.37637000e+01 3.89254000e+01	N
atom  6.84094000e+00 1.36261000e+01 3.61789000e+01	N
atom  9.39018000e+00 1.41369000e+01 3.03389000e+01	N
atom  2.01115000e+00 1.54315000e+01 1.50218000e+00	N
atom  3.44525000e+00 1.55427000e+01 5.66948000e-01	Si
atom  1.62271000e+00 1.54269000e+01 4.41056000e+00	Si
atom  3.28724000e+00 1.52627000e+01 4.11300000e+00	N
atom  -4.09105000e-01 1.55352000e+01 1.04661000e-01	Si
atom  4.74030000e+00 1.58139000e+01 3.24942000e+00	Si
atom  4.73924000e+00 1.59353000e+01 1.58807000e+00	N
atom  8.93578000e+00 1.51897000e+01 2.10300000e+00	Si
atom  7.60731000e+00 1.55360000e+01 9.84298000e-01	N
atom  9.25800000e+00 1.65376000e+01 4.73324000e+00	Si
atom  9.25768000e+00 1.67347000e+01 3.00329000e+00	N
atom  6.26942000e+00 1.65490000e+01 1.18768000e+00	Si
atom  7.54638000e+00 1.59964000e+01 4.91658000e+00	N
atom  1.53614000e+00 1.51810000e+01 6.07926000e+00	N
atom  1.88840000e+00 1.56958000e+01 8.97720000e+00	N
atom  1.35467000e+00 1.62318000e+01 7.42402000e+00	Si
atom  5.29442000e+00 1.51949000e+01 6.25268000e+00	N
atom  5.98162000e+00 1.66368000e+01 5.53552000e+00	Si
atom  7.04699000e+00 1.57016000e+01 8.20263000e+00	N
atom  7.82605000e+00 1.48986000e+01 9.51551000e+00	Si
atom  -3.74019000e-01 1.64428000e+01 7.36747000e+00	N
atom  -3.17282000e-01 1.66705000e+01 1.37817000e+00	N
atom  2.29398000e+00 1.60348000e+01 1.18535000e+01	N
atom  8.76382000e-01 1.64232000e+01 1.43621000e+01	N
atom  4.10546000e+00 1.59721000e+01 1.22578000e+01	Si
atom  2.65313000e+00 1.65170000e+01 1.02138000e+01	Si
atom  4.38211000e+00 1.63202000e+01 1.05100000e+01	N
atom  7.01373000e+00 1.50707000e+01 1.30111000e+01	N
atom  8.36580000e+00 1.61159000e+01 1.05749000e+01	N
atom  7.45875000e+00 1.64914000e+01 1.20289000e+01	Si
atom  6.79900000e+00 1.47265000e+01 1.46906000e+01	Si
atom  9.06803000e+00 1.66941000e+01 1.43652000e+01	Si