lattice_vector  3.98769752e+01 0.00000000e+00 0.00000000e+00
lattice_vector  2.44176050e-15 3.98769752e+01 0.00000000e+00
lattice_vector  2.44176050e-15 2.44176050e-15 3.98769752e+01
atom  1.21292000e+00 9.29762000e-01 3.91174000e+00	N
atom  1.61683000e-01 2.17544000e+00 4.36517000e+00	Si
atom  1.49181000e+00 5.03390000e+00 3.75153000e+00	N
atom  -2.58203000e-01 4.94568000e+00 3.05966000e+00	Si
atom  1.80432000e+00 4.43939000e+00 8.30655000e-01	N
atom  5.93551000e-01 3.77444000e-01 7.42961000e-01	Si
atom  7.42342000e-01 1.87198000e+00 -2.06764000e-01	N
atom  6.22007000e-01 5.71889000e+00 2.95627000e-01	Si
atom  -1.74143000e-01 7.56369000e+00 3.19083000e-01	N
atom  1.16055000e+00 9.24041000e+00 2.44147000e+00	N
atom  1.22247000e+00 8.35690000e+00 9.61933000e-01	Si
atom  1.23034000e+00 7.61165000e+00 4.78143000e+00	N
atom  1.77653000e+00 6.87044000e+00 1.88439000e+00	N
atom  -9.03117000e-02 1.03383000e+01 2.96649000e+00	Si
atom  -2.81435000e-01 2.85321000e+00 8.83630000e+00	Si
atom  1.05662000e+00 3.88849000e+00 8.30223000e+00	N
atom  -5.27119000e-02 1.07048000e+00 8.78857000e+00	N
atom  1.20518000e+00 3.02115000e+00 5.49024000e+00	N
atom  4.20237000e-01 3.82048000e+00 6.71187000e+00	Si
atom  1.63292000e-01 1.02797000e+01 8.88081000e+00	N
atom  7.40931000e-01 8.89626000e+00 9.87964000e+00	Si
atom  1.33663000e+00 9.80272000e+00 7.60272000e+00	Si
atom  -2.41811000e-03 5.45557000e+00 6.28199000e+00	N
atom  1.31559000e+00 6.00945000e+00 5.29297000e+00	Si
atom  8.53653000e-01 3.91546000e+00 1.18186000e+01	Si
atom  4.19928000e-01 2.59597000e+00 1.05213000e+01	N
atom  7.08260000e-01 5.29762000e+00 1.06658000e+01	N
atom  9.32539000e-01 5.19388000e+00 1.33133000e+01	N
atom  1.08418000e+00 1.04485000e+00 1.01502000e+01	Si
atom  3.03854000e-01 5.00862000e-01 1.46190000e+01	Si
atom  1.13605000e+00 9.42042000e+00 1.26539000e+01	Si
atom  1.70002000e+00 7.96215000e+00 1.35604000e+01	N
atom  -4.95204000e-01 7.97911000e+00 1.04646000e+01	N
atom  5.32809000e-01 4.05916000e+00 1.87133000e+01	Si
atom  1.34426000e+00 2.98582000e+00 1.76308000e+01	N
atom  -2.21067000e-01 2.52848000e+00 1.68432000e+01	Si
atom  -1.92353000e-01 2.13947000e+00 1.51865000e+01	N
atom  3.70780000e-01 9.76013000e+00 1.50359000e+01	N
atom  1.81472000e+00 5.27073000e+00 1.90262000e+01	N
atom  7.71022000e-01 7.77175000e+00 1.66724000e+01	N
atom  7.00365000e-01 8.03780000e+00 1.49722000e+01	Si
atom  1.60351000e+00 9.71222000e+00 1.93905000e+01	Si
atom  9.11758000e-01 2.99127000e+00 2.32822000e+01	N
atom  1.18118000e-01 2.58316000e+00 2.17862000e+01	Si
atom  3.77744000e-01 3.74091000e+00 2.04146000e+01	N
atom  7.64419000e-01 1.13257000e+00 2.10157000e+01	N
atom  -1.93358000e-01 3.54032000e+00 2.45278000e+01	Si
atom  1.32336000e+00 5.14748000e+00 2.08189000e+01	Si
atom  1.05986000e+00 8.62021000e+00 2.06365000e+01	N
atom  3.61366000e-02 6.15649000e+00 2.13787000e+01	N
atom  -3.94066000e-01 7.72384000e+00 2.06099000e+01	Si
atom  5.60823000e-01 5.05228000e+00 2.51272000e+01	N
atom  9.90999000e-01 8.77751000e-01 2.91987000e+01	Si
atom  1.15884000e+00 1.12719000e+00 2.74993000e+01	N
atom  6.85692000e-01 4.25117000e+00 2.67016000e+01	Si
atom  -3.11798000e-01 1.30368000e+00 2.65829000e+01	Si
atom  -3.96596000e-01 2.98330000e+00 2.61337000e+01	N
atom  1.64084000e+00 8.30806000e+00 2.80534000e+01	N
atom  7.13490000e-01 9.03794000e+00 2.67151000e+01	Si
atom  6.09673000e-01 7.63334000e+00 2.57001000e+01	N
atom  1.25959000e+00 6.67274000e+00 2.86395000e+01	Si
atom  2.22587000e-01 5.43387000e+00 2.79268000e+01	N
atom  8.69501000e-01 2.71393000e+00 3.24405000e+01	N
atom  -2.19721000e-01 2.12384000e+00 3.36802000e+01	Si
atom  -1.92714000e-01 5.92850000e-01 3.44259000e+01	N
atom  -2.96432000e-01 1.77125000e+00 2.99064000e+01	N
atom  -5.23265000e-01 2.72594000e+00 3.13405000e+01	Si
atom  1.33134000e+00 9.33753000e+00 3.16180000e+01	N
atom  1.54292000e+00 7.65732000e+00 3.14772000e+01	Si
atom  5.92898000e-01 7.06902000e+00 3.01640000e+01	N
atom  1.50845000e+00 6.59876000e+00 3.27706000e+01	N
atom  1.53600000e+00 6.77399000e+00 3.45495000e+01	Si
atom  1.12624000e+00 3.83508000e+00 3.55783000e+01	Si
atom  1.39331000e+00 2.77592000e+00 3.70205000e+01	N
atom  7.32905000e-02 2.25774000e+00 3.80480000e+01	Si
atom  -3.34713000e-01 3.48974000e+00 3.48529000e+01	N
atom  1.03474000e-01 7.74552000e+00 3.47750000e+01	N
atom  1.57294000e+00 6.26218000e+00 3.74627000e+01	Si
atom  3.25161000e-01 5.66180000e+00 3.84425000e+01	N
atom  4.28019000e-01 8.73240000e+00 3.61439000e+01	Si
atom  1.32491000e+00 8.02191000e+00 3.74454000e+01	N
atom  1.37335000e+00 1.01741000e+01 3.59096000e+01	N
atom  8.58023000e-02 1.01951000e+01 3.88885000e+01	N
atom  1.60123000e+00 9.41278000e+00 3.83211000e+01	Si
atom  1.47610000e+00 5.57968000e+00 3.58479000e+01	N
atom  8.73301000e-01 1.16871000e+01 3.64227000e+00	N
atom  2.88744000e-01 1.45002000e+01 3.77744000e+00	Si
atom  1.47691000e+00 1.41461000e+01 2.51673000e+00	N
atom  1.50381000e+00 1.16539000e+01 9.49950000e-01	N
atom  -1.14776000e-01 1.13524000e+01 2.62530000e-01	Si
atom  1.93683000e+00 1.23716000e+01 2.46936000e+00	Si
atom  7.18420000e-01 1.90313000e+01 2.71044000e+00	N
atom  8.16422000e-01 1.67623000e+01 9.66027000e-01	N
atom  1.13651000e+00 1.85351000e+01 1.01405000e+00	Si
atom  3.79179000e-01 1.62219000e+01 3.46966000e+00	N
atom  1.60940000e+00 1.59064000e+01 2.25326000e+00	Si
atom  1.00199000e+00 1.39852000e+01 5.27857000e+00	N
atom  9.85408000e-01 1.20742000e+01 5.42238000e+00	Si
atom  9.83303000e-01 1.27661000e+01 7.43230000e+00	N
atom  7.81694000e-01 1.03934000e+01 6.10299000e+00	N
atom  1.93598000e+00 1.78897000e+01 7.39710000e+00	N
atom  -3.13007000e-01 1.59706000e+01 7.89752000e+00	Si
atom  1.12102000e+00 1.95347000e+01 5.69118000e+00	N
atom  3.65514000e-01 1.86119000e+01 6.96878000e+00	Si
atom  1.22173000e+00 1.54839000e+01 8.59290000e+00	N
atom  9.18516000e-01 1.21871000e+01 1.42104000e+01	Si
atom  1.46116000e+00 1.34973000e+01 1.31150000e+01	N
atom  1.55530000e+00 1.28145000e+01 1.03155000e+01	N
atom  1.76622000e+00 1.10299000e+01 1.30095000e+01	N
atom  1.58337000e+00 1.51681000e+01 1.27768000e+01	Si
atom  1.77720000e+00 1.45999000e+01 1.00428000e+01	Si
atom  7.86997000e-01 1.54990000e+01 1.11723000e+01	N
atom  9.47158000e-01 1.64106000e+01 1.37948000e+01	N
atom  5.25807000e-01 1.96617000e+01 1.07962000e+01	N
atom  -1.26972000e-01 1.97965000e+01 1.25114000e+01	Si
atom  3.37559000e-01 1.25923000e+01 1.87613000e+01	N
atom  1.13725000e+00 1.32476000e+01 1.72990000e+01	Si
atom  1.27594000e+00 1.21487000e+01 1.59890000e+01	N
atom  -1.58453000e-01 1.43487000e+01 1.69474000e+01	N
atom  1.25644000e+00 1.04872000e+01 1.63085000e+01	Si
atom  7.89276000e-01 1.00760000e+01 1.78854000e+01	N
atom  8.53528000e-01 1.79882000e+01 1.73958000e+01	Si
atom  1.54546000e+00 1.66687000e+01 1.63691000e+01	N
atom  1.70600000e+00 1.92234000e+01 1.83164000e+01	N
atom  -8.36156000e-02 1.59635000e+01 1.64216000e+01	Si
atom  -2.61977000e-02 1.92028000e+01 1.64538000e+01	N
atom  1.24733000e+00 1.29552000e+01 2.13770000e+01	N
atom  1.58791000e+00 1.45675000e+01 2.19714000e+01	Si
atom  5.52266000e-01 1.50419000e+01 2.46065000e+01	Si
atom  -2.49679000e-01 1.25262000e+01 2.04550000e+01	Si
atom  1.88846000e-01 1.55435000e+01 2.16215000e+01	N
atom  2.71660000e-01 1.82094000e+01 2.27773000e+01	N
atom  2.06083000e-01 1.72622000e+01 2.13525000e+01	Si
atom  4.63049000e-01 1.79536000e+01 2.44908000e+01	Si
atom  1.63070000e-01 1.98361000e+01 2.23683000e+01	Si
atom  1.61455000e+00 1.75128000e+01 2.04056000e+01	N
atom  1.40603000e+00 2.02057000e+01 2.11753000e+01	N
atom  1.78501000e+00 1.22235000e+01 2.73556000e+01	N
atom  1.20435000e+00 1.44411000e+01 2.61720000e+01	N
atom  3.69733000e-01 1.30635000e+01 2.68961000e+01	Si
atom  1.25904000e+00 1.02902000e+01 2.55205000e+01	N
atom  -3.61295000e-01 2.02827000e+01 2.92270000e+01	Si
atom  -4.39812000e-01 1.91040000e+01 2.53647000e+01	N
atom  -3.77833000e-01 1.65082000e+01 2.49107000e+01	N
atom  1.58143000e+00 1.81671000e+01 2.84873000e+01	Si
atom  1.33745000e+00 1.66460000e+01 2.94433000e+01	N
atom  7.40970000e-02 1.90230000e+01 2.82251000e+01	N
atom  4.23581000e-01 1.41947000e+01 3.10028000e+01	N
atom  2.00243000e-02 1.49829000e+01 3.40134000e+01	Si
atom  1.59069000e+00 1.43630000e+01 3.34311000e+01	N
atom  1.77995000e+00 1.11404000e+01 3.00396000e+01	N
atom  3.39458000e-01 1.03732000e+01 3.06726000e+01	Si
atom  1.99149000e+00 1.38858000e+01 3.17815000e+01	Si
atom  1.67224000e-02 1.66941000e+01 3.40431000e+01	N
atom  1.08719000e+00 1.91808000e+01 3.33894000e+01	N
atom  8.30001000e-03 1.58078000e+01 3.02398000e+01	Si
atom  -1.13500000e-01 1.79982000e+01 3.28524000e+01	Si
atom  4.83599000e-01 2.02267000e+01 3.08410000e+01	N
atom  2.46685000e-01 1.39296000e+01 3.71027000e+01	Si
atom  -1.33752000e-01 1.22727000e+01 3.65780000e+01	N
atom  6.66609000e-01 1.48989000e+01 3.56912000e+01	N
atom  1.58326000e+00 1.18187000e+01 3.66207000e+01	Si
atom  1.94212000e+00 1.34881000e+01 3.74840000e+01	N
atom  9.88266000e-02 1.90748000e+01 3.96899000e+01	N
atom  5.91244000e-01 1.67254000e+01 3.56858000e+01	Si
atom  1.53115000e+00 1.99975000e+01 3.58514000e+01	N
atom  7.33802000e-01 2.18663000e+01 2.34540000e+00	N
atom  7.42958000e-01 2.33910000e+01 1.57402000e-01	N
atom  -3.61356000e-01 2.25855000e+01 1.24657000e+00	Si
atom  9.62593000e-01 2.49647000e+01 2.62147000e+00	N
atom  -2.62648000e-01 2.35063000e+01 4.59933000e+00	N
atom  5.89684000e-01 2.05408000e+01 3.62699000e+00	Si
atom  6.05384000e-02 2.96436000e+01 7.82875000e-01	N
atom  4.09540000e-01 2.84663000e+01 3.23466000e+00	N
atom  1.22437000e+00 2.92453000e+01 1.92716000e+00	Si
atom  -1.66345000e-01 2.05436000e+01 9.41480000e+00	Si
atom  1.55722000e+00 2.23095000e+01 6.58265000e+00	N
atom  9.32282000e-01 2.37159000e+01 5.84798000e+00	Si
atom  -1.93293000e-02 2.43322000e+01 7.14662000e+00	N
atom  1.40101000e+00 2.13129000e+01 9.13726000e+00	N
atom  1.94260000e+00 2.41300000e+01 9.02807000e+00	N
atom  1.04700000e+00 2.91494000e+01 7.47163000e+00	N
atom  6.90202000e-01 2.93029000e+01 4.77263000e+00	Si
atom  1.80994000e-01 2.63183000e+01 9.52379000e+00	N
atom  9.24982000e-01 2.53867000e+01 8.19701000e+00	Si
atom  8.61545000e-01 2.09458000e+01 1.32806000e+01	N
atom  5.49369000e-01 2.45443000e+01 1.38046000e+01	N
atom  2.79178000e-01 2.67446000e+01 1.21732000e+01	N
atom  1.19073000e+00 2.70663000e+01 1.07132000e+01	Si
atom  1.51531000e-01 2.96181000e+01 1.28525000e+01	N
atom  1.21990000e+00 3.01285000e+01 1.16023000e+01	Si
atom  1.65721000e+00 2.87087000e+01 1.05685000e+01	N
atom  1.30690000e+00 2.16448000e+01 1.48860000e+01	Si
atom  1.34911000e-01 2.25934000e+01 1.56272000e+01	N
atom  4.04961000e-01 2.43482000e+01 1.55591000e+01	Si
atom  2.51444000e-01 2.15382000e+01 1.81865000e+01	N
atom  1.28566000e+00 2.51043000e+01 1.87941000e+01	Si
atom  -9.25350000e-02 2.43044000e+01 1.79369000e+01	N
atom  9.61801000e-01 2.04040000e+01 1.72460000e+01	Si
atom  1.89824000e+00 2.48225000e+01 1.61948000e+01	N
atom  1.24281000e+00 2.79261000e+01 1.84094000e+01	Si
atom  3.16760000e-01 2.82914000e+01 1.97522000e+01	N
atom  1.34318000e-01 2.69137000e+01 1.74494000e+01	N
atom  6.60995000e-01 2.91448000e+01 1.58712000e+01	N
atom  3.32074000e-01 2.26478000e+01 2.33641000e+01	Si
atom  5.03006000e-01 2.09245000e+01 2.36306000e+01	N
atom  1.31844000e+00 2.29125000e+01 2.19711000e+01	N
atom  1.61601000e+00 2.45674000e+01 2.15374000e+01	Si
atom  4.86952000e-01 2.49155000e+01 2.02843000e+01	N
atom  1.19151000e+00 2.34936000e+01 2.46386000e+01	N
atom  1.61608000e+00 2.56425000e+01 2.28750000e+01	N
atom  3.46983000e-01 2.68020000e+01 2.32426000e+01	Si
atom  9.48019000e-01 2.80096000e+01 2.42678000e+01	N
atom  3.67784000e-01 2.96062000e+01 2.40262000e+01	Si
atom  5.91322000e-01 2.99339000e+01 2.22656000e+01	N
atom  -3.38069000e-01 2.89710000e+01 2.11553000e+01	Si
atom  -5.64369000e-01 2.18706000e+01 2.60413000e+01	N
atom  3.31565000e-01 2.06217000e+01 2.52953000e+01	Si
atom  5.15493000e-01 2.32213000e+01 2.62960000e+01	Si
atom  1.75606000e-02 2.18670000e+01 2.86522000e+01	N
atom  1.35494000e+00 2.29248000e+01 2.89035000e+01	Si
atom  1.29687000e+00 2.44727000e+01 2.97355000e+01	N
atom  1.59838000e+00 2.87742000e+01 2.67698000e+01	N
atom  -1.83400000e-01 2.58375000e+01 2.56701000e+01	Si
atom  9.04742000e-01 2.71539000e+01 2.89018000e+01	N
atom  1.61466000e+00 2.60054000e+01 2.56564000e+01	N
atom  2.52121000e-01 2.81698000e+01 2.77256000e+01	Si
atom  1.64460000e-01 2.57500000e+01 2.96025000e+01	Si
atom  1.25852000e+00 2.37105000e+01 3.42203000e+01	Si
atom  1.31092000e+00 2.40432000e+01 3.24291000e+01	N
atom  5.06040000e-01 2.20977000e+01 3.41682000e+01	N
atom  5.74649000e-01 2.03878000e+01 3.44280000e+01	Si
atom  5.04225000e-01 2.86728000e+01 3.28853000e+01	Si
atom  1.79972000e+00 2.77298000e+01 3.35581000e+01	N
atom  2.50873000e-01 2.98754000e+01 2.97435000e+01	N
atom  -4.62955000e-01 2.55724000e+01 3.12884000e+01	N
atom  1.17200000e+00 3.01431000e+01 3.22291000e+01	N
atom  1.04083000e+00 2.08733000e+01 3.72848000e+01	Si
atom  3.24036000e-01 2.36044000e+01 3.83290000e+01	Si
atom  1.13403000e+00 2.26386000e+01 3.71879000e+01	N
atom  -3.19594000e-01 2.43575000e+01 3.47536000e+01	N
atom  7.98078000e-01 2.52582000e+01 3.81215000e+01	N
atom  1.68615000e+00 2.77522000e+01 3.53036000e+01	Si
atom  9.84340000e-02 3.01839000e+01 3.52968000e+01	Si
atom  3.61923000e-01 2.69656000e+01 3.59912000e+01	N
atom  1.57849000e+00 2.94672000e+01 3.56959000e+01	N
atom  9.43502000e-02 2.78612000e+01 3.87693000e+01	N
atom  1.69523000e+00 2.83150000e+01 3.92213000e+01	Si
atom  -8.72139000e-02 2.66240000e+01 3.76421000e+01	Si
atom  2.83964000e-01 3.47694000e+01 6.47296000e-01	N
atom  1.41261000e+00 3.18716000e+01 3.24395000e+00	Si
atom  2.43301000e-01 3.24942000e+01 2.18254000e+00	N
atom  4.90202000e-01 3.09484000e+01 4.53833000e+00	N
atom  -1.89038000e-01 3.31229000e+01 6.39508000e-01	Si
atom  1.86916000e+00 3.52699000e+01 2.19237000e-01	Si
atom  1.71948000e+00 3.76435000e+01 1.97874000e+00	Si
atom  3.75690000e-01 3.67723000e+01 2.53256000e+00	N
atom  1.06597000e-01 3.66865000e+01 4.31214000e+00	Si
atom  2.95663000e-01 3.83856000e+01 4.60506000e+00	N
atom  1.80042000e+00 3.93460000e+01 1.60963000e+00	N
atom  1.59768000e+00 3.59253000e+01 4.80161000e+00	N
atom  1.01198000e+00 3.35561000e+01 7.39132000e+00	Si
atom  1.64110000e+00 3.42567000e+01 4.95582000e+00	Si
atom  1.57716000e+00 3.35509000e+01 9.11192000e+00	N
atom  6.49590000e-01 3.18108000e+01 7.18835000e+00	N
atom  1.42828000e-01 3.36041000e+01 5.45596000e+00	N
atom  -3.21763000e-01 3.18970000e+01 5.69325000e+00	Si
atom  -1.97214000e-01 3.47319000e+01 7.68149000e+00	N
atom  7.26635000e-02 3.84955000e+01 6.41053000e+00	Si
atom  5.77772000e-01 3.81390000e+01 8.13979000e+00	N
atom  7.86955000e-01 4.01342000e+01 6.45715000e+00	N
atom  -2.13425000e-01 3.64316000e+01 8.14855000e+00	Si
atom  8.34043000e-01 3.16280000e+01 1.08898000e+01	N
atom  9.53223000e-01 3.22204000e+01 1.40366000e+01	N
atom  1.18044000e+00 3.41340000e+01 1.17142000e+01	N
atom  2.93137000e-01 3.34884000e+01 1.30331000e+01	Si
atom  5.37657000e-01 3.44545000e+01 1.00485000e+01	Si
atom  -3.62227000e-01 3.11267000e+01 1.34915000e+01	Si
atom  9.90321000e-01 3.75924000e+01 1.07598000e+01	Si
atom  2.55238000e-01 3.75976000e+01 1.23407000e+01	N
atom  5.36146000e-01 3.92632000e+01 1.05128000e+01	N
atom  2.13595000e-01 3.62973000e+01 1.34747000e+01	Si
atom  -8.56236000e-02 3.93540000e+01 1.22075000e+01	Si
atom  9.94878000e-01 4.03612000e+01 1.30728000e+01	N
atom  3.52448000e-01 3.62177000e+01 9.86581000e+00	N
atom  6.86292000e-01 3.21651000e+01 1.85529000e+01	Si
atom  1.30693000e+00 3.42471000e+01 1.58895000e+01	N
atom  4.18631000e-02 3.42896000e+01 1.70589000e+01	Si
atom  9.43410000e-01 3.38547000e+01 1.85461000e+01	N
atom  9.68747000e-01 3.16681000e+01 1.68797000e+01	N
atom  -1.88227000e-01 3.05444000e+01 1.63680000e+01	Si
atom  1.69448000e+00 3.26303000e+01 1.55562000e+01	Si
atom  1.52738000e+00 3.12679000e+01 1.97466000e+01	N
atom  1.64596000e+00 3.50371000e+01 1.97050000e+01	Si
atom  1.46921000e+00 3.67295000e+01 1.95336000e+01	N
atom  1.55626000e+00 3.69141000e+01 1.65321000e+01	N
atom  1.17320000e+00 3.95527000e+01 1.59083000e+01	N
atom  9.92675000e-01 3.94543000e+01 1.87530000e+01	N
atom  6.15472000e-02 3.96387000e+01 1.73241000e+01	Si
atom  -1.37488000e-01 3.69368000e+01 1.66076000e+01	Si
atom  9.46149000e-01 3.34846000e+01 2.34938000e+01	N
atom  1.20506000e+00 3.13146000e+01 2.14979000e+01	Si
atom  -8.77772000e-02 3.39045000e+01 2.21803000e+01	Si
atom  5.35679000e-01 3.49999000e+01 2.10384000e+01	N
atom  -1.69264000e-01 3.23545000e+01 2.13327000e+01	N
atom  1.28091000e+00 3.08260000e+01 2.48228000e+01	N
atom  1.69926000e+00 3.43702000e+01 2.47299000e+01	Si
atom  -2.97453000e-01 3.85653000e+01 2.25817000e+01	Si
atom  -1.32556000e-01 3.98982000e+01 1.99314000e+01	Si
atom  -2.26151000e-01 3.83957000e+01 2.07894000e+01	N
atom  1.23577000e+00 3.93686000e+01 2.30369000e+01	N
atom  -1.54036000e-01 3.66426000e+01 2.07788000e+01	Si
atom  1.83296000e+00 3.04957000e+01 2.64662000e+01	Si
atom  -3.44007000e-01 3.09313000e+01 2.83972000e+01	Si
atom  1.28616000e+00 3.14272000e+01 2.77594000e+01	N
atom  6.36072000e-01 3.48995000e+01 2.60671000e+01	N
atom  1.42621000e+00 3.40727000e+01 2.86818000e+01	N
atom  -4.28434000e-01 4.01664000e+01 2.51674000e+01	N
atom  5.25081000e-01 3.91338000e+01 2.95854000e+01	N
atom  3.22525000e-01 3.64781000e+01 2.83511000e+01	N
atom  1.35713000e+00 3.54006000e+01 2.75487000e+01	Si
atom  1.23312000e+00 3.75682000e+01 2.93644000e+01	Si
atom  1.14169000e+00 3.97348000e+01 2.47634000e+01	Si
atom  1.22502000e+00 3.17351000e+01 3.28867000e+01	Si
atom  1.44150000e+00 3.48382000e+01 3.33700000e+01	N
atom  -1.07240000e-01 3.26431000e+01 3.22893000e+01	N
atom  9.72631000e-01 3.16940000e+01 3.46380000e+01	N
atom  1.72113000e+00 3.01539000e+01 3.06099000e+01	Si
atom  1.33311000e-01 3.87692000e+01 3.12247000e+01	Si
atom  1.14824000e+00 3.96973000e+01 3.21514000e+01	N
atom  1.03033000e+00 3.92347000e+01 3.40149000e+01	Si
atom  1.06641000e-01 3.77085000e+01 3.36467000e+01	N
atom  1.06032000e+00 3.64665000e+01 3.26412000e+01	Si
atom  7.54998000e-01 3.71794000e+01 3.10219000e+01	N
atom  4.34454000e-01 3.36418000e+01 3.68417000e+01	N
atom  7.58180000e-01 3.23363000e+01 3.92522000e+01	N
atom  3.39880000e-01 3.07044000e+01 3.92730000e+01	Si
atom  1.59154000e+00 3.29950000e+01 3.79103000e+01	Si
atom  -2.16117000e-01 3.26983000e+01 3.55737000e+01	Si
atom  9.41816000e-01 3.87393000e+01 3.58131000e+01	N
atom  7.86949000e-01 3.53735000e+01 3.70716000e+01	Si
atom  3.14906000e-01 3.65790000e+01 3.82379000e+01	N
atom  1.04351000e+00 3.78554000e+01 3.89807000e+01	Si
atom  5.11517000e-04 3.90790000e+01 3.94647000e+01	N
atom  -4.25389000e-01 3.98347000e+01 3.60352000e+01	Si
atom  2.97884000e+00 1.80914000e+00 1.61675000e+00	N
atom  2.46761000e+00 6.10868000e-01 2.76081000e+00	Si
atom  3.96802000e+00 3.19970000e+00 4.44697000e+00	N
atom  2.08713000e+00 2.81059000e+00 4.49024000e-01	Si
atom  2.41522000e+00 3.88399000e+00 4.74509000e+00	Si
atom  2.33986000e+00 5.26997000e+00 2.23598000e+00	Si
atom  4.02098000e+00 5.38257000e+00 2.53209000e+00	N
atom  3.88318000e+00 8.15008000e+00 3.15410000e+00	N
atom  2.09893000e+00 7.92533000e+00 3.30234000e+00	Si
atom  1.93578000e+00 4.87478000e+00 9.57083000e+00	Si
atom  3.33016000e+00 1.10036000e+00 6.30263000e+00	N
atom  2.67779000e+00 5.12110000e+00 5.93622000e+00	N
atom  4.20801000e+00 6.08218000e-01 7.69580000e+00	Si
atom  3.15377000e+00 7.60041000e+00 8.61571000e+00	Si
atom  1.63851000e+00 8.32596000e+00 8.45320000e+00	N
atom  2.99855000e+00 6.18006000e+00 9.44931000e+00	N
atom  4.02009000e+00 7.33007000e+00 7.10293000e+00	N
atom  2.66037000e+00 1.07151000e+00 1.08401000e+01	N
atom  3.51360000e+00 8.38052000e-01 1.36181000e+01	N
atom  3.21944000e+00 3.96085000e+00 1.03468000e+01	N
atom  3.89156000e+00 2.34532000e+00 1.03665000e+01	Si
atom  2.35208000e+00 1.39609000e+00 1.25497000e+01	Si
atom  2.11474000e+00 3.09702000e+00 1.27725000e+01	N
atom  2.19536000e+00 4.07019000e+00 1.41794000e+01	Si
atom  4.02902000e+00 2.10420000e+00 1.47802000e+01	Si
atom  4.08149000e+00 5.48146000e+00 1.07867000e+01	Si
atom  3.03605000e+00 5.56069000e+00 1.44745000e+01	N
atom  3.62045000e+00 6.77049000e+00 1.20416000e+01	N
atom  3.52319000e+00 8.36453000e+00 1.13665000e+01	Si
atom  2.28084000e+00 6.38923000e+00 1.31374000e+01	Si
atom  1.94726000e+00 9.05601000e+00 1.11395000e+01	N
atom  2.80017000e+00 3.06348000e+00 1.54208000e+01	N
atom  2.96406000e+00 3.00064000e+00 1.71448000e+01	Si
atom  4.07537000e+00 4.56616000e+00 1.73283000e+01	N
atom  3.94222000e+00 2.07525000e+00 1.82508000e+01	N
atom  3.27651000e+00 5.79930000e+00 1.82974000e+01	Si
atom  3.37984000e+00 6.85648000e+00 1.68251000e+01	N
atom  4.18390000e+00 5.73208000e+00 1.57704000e+01	Si
atom  2.82139000e+00 8.58557000e+00 1.87385000e+01	N
atom  2.41813000e+00 8.26636000e+00 1.70907000e+01	Si
atom  2.76971000e+00 9.60073000e+00 1.60303000e+01	N
atom  4.22379000e+00 8.28874000e+00 1.96359000e+01	Si
atom  3.16739000e+00 1.37818000e+00 2.25073000e+01	N
atom  2.45202000e+00 2.36367000e+00 2.37743000e+01	Si
atom  3.72048000e+00 3.57770000e+00 2.42075000e+01	N
atom  3.64871000e+00 5.21487000e+00 2.32141000e+01	Si
atom  2.73498000e+00 5.19524000e+00 2.17492000e+01	N
atom  3.89787000e+00 8.23616000e+00 2.13640000e+01	N
atom  2.27655000e+00 8.72792000e+00 2.18540000e+01	Si
atom  3.13407000e+00 6.01174000e+00 2.46705000e+01	N
atom  2.22405000e+00 8.34463000e+00 2.34962000e+01	N
atom  2.13169000e+00 1.00440000e+01 2.40022000e+01	Si
atom  3.28106000e+00 4.52136000e+00 2.55886000e+01	Si
atom  3.42026000e+00 4.48007000e+00 2.80484000e+01	Si
atom  2.55624000e+00 1.80333000e+00 2.67942000e+01	Si
atom  2.26622000e+00 3.65323000e+00 2.68379000e+01	N
atom  3.96687000e+00 1.62305000e+00 2.92248000e+01	Si
atom  4.05555000e+00 1.18580000e+00 2.74778000e+01	N
atom  4.15334000e+00 3.34588000e+00 2.91323000e+01	N
atom  2.19364000e+00 1.27105000e+00 2.51145000e+01	N
atom  3.99840000e+00 6.91130000e+00 2.96285000e+01	Si
atom  3.39601000e+00 8.30820000e+00 2.61504000e+01	N
atom  2.27046000e+00 7.42192000e+00 2.50476000e+01	Si
atom  2.87674000e+00 5.95846000e+00 2.87419000e+01	N
atom  3.25321000e+00 8.88574000e+00 2.78376000e+01	Si
atom  3.54671000e+00 2.08606000e+00 3.23659000e+01	N
atom  3.13635000e+00 4.55452000e+00 3.16862000e+01	N
atom  2.39200000e+00 3.32767000e+00 3.27089000e+01	Si
atom  2.44613000e+00 3.60469000e+00 3.44155000e+01	N
atom  2.74154000e+00 5.02874000e-01 3.23269000e+01	Si
atom  2.46877000e+00 1.23136000e+00 2.99919000e+01	N
atom  3.10883000e+00 6.07382000e+00 3.22873000e+01	Si
atom  3.21010000e+00 7.40297000e+00 3.11180000e+01	N
atom  3.80564000e+00 5.94475000e+00 3.37825000e+01	N
atom  3.93458000e+00 4.52700000e+00 3.49317000e+01	Si
atom  4.04613000e+00 3.64328000e+00 3.65591000e+01	N
atom  3.36083000e+00 8.71479000e-01 3.69363000e+01	N
atom  3.28681000e+00 2.55156000e+00 3.91365000e+01	N
atom  3.02821000e+00 2.48836000e+00 3.74428000e+01	Si
atom  3.76172000e+00 2.77389000e-01 3.53728000e+01	Si
atom  2.82707000e+00 9.68669000e+00 3.50973000e+01	Si
atom  2.82211000e+00 7.96860000e+00 3.50787000e+01	N
atom  2.95155000e+00 5.80802000e+00 3.82721000e+01	N
atom  2.40845000e+00 8.86431000e+00 3.96863000e+01	N
atom  4.15459000e+00 9.05593000e+00 3.97200000e+01	Si
atom  3.62996000e+00 1.20621000e+01 3.02250000e+00	N
atom  4.07049000e+00 1.05111000e+01 7.95178000e-01	N
atom  4.19936000e+00 1.29390000e+01 4.40393000e+00	Si
atom  4.21459000e+00 1.46304000e+01 4.04156000e+00	N
atom  3.19010000e+00 1.66802000e+01 2.33280000e+00	N
atom  2.74272000e+00 1.88362000e+01 5.61896000e-01	N
atom  3.92456000e+00 1.80140000e+01 1.54329000e+00	Si
atom  3.53709000e+00 1.76070000e+01 4.94428000e+00	N
atom  2.25024000e+00 1.37487000e+01 6.65942000e+00	Si
atom  2.99922000e+00 1.24915000e+01 5.68775000e+00	N
atom  2.73573000e+00 1.08054000e+01 7.93723000e+00	N
atom  3.20698000e+00 1.35163000e+01 8.19712000e+00	N
atom  3.77962000e+00 1.12092000e+01 6.56850000e+00	Si
atom  1.99403000e+00 1.22006000e+01 8.75824000e+00	Si
atom  2.63299000e+00 1.85105000e+01 6.00067000e+00	Si
atom  3.48395000e+00 1.99698000e+01 6.51702000e+00	N
atom  2.88931000e+00 1.54262000e+01 6.50749000e+00	N
atom  2.56024000e+00 1.63865000e+01 7.89925000e+00	Si
atom  4.16251000e+00 1.80616000e+01 9.65218000e+00	Si
atom  3.53786000e+00 1.96304000e+01 9.22647000e+00	N
atom  4.17084000e+00 1.69498000e+01 8.39056000e+00	N
atom  3.97800000e+00 1.59227000e+01 5.21670000e+00	Si
atom  3.73289000e+00 1.18538000e+01 1.17852000e+01	N
atom  3.48275000e+00 1.06847000e+01 1.30702000e+01	Si
atom  2.09631000e+00 1.23734000e+01 1.18842000e+01	Si
atom  3.38825000e+00 1.50107000e+01 1.04907000e+01	N
atom  3.28897000e+00 1.57432000e+01 1.31513000e+01	N
atom  3.52211000e+00 1.89847000e+01 1.24024000e+01	Si
atom  3.10023000e+00 1.83839000e+01 1.41103000e+01	N
atom  3.28106000e+00 1.77499000e+01 1.11319000e+01	N
atom  3.96905000e+00 1.61874000e+01 1.15934000e+01	Si
atom  2.50647000e+00 1.68266000e+01 1.45154000e+01	Si
atom  2.15756000e+00 2.00395000e+01 1.01746000e+01	Si
atom  2.68367000e+00 1.40811000e+01 1.71097000e+01	N
atom  4.08665000e+00 1.31519000e+01 1.66275000e+01	Si
atom  4.19130000e+00 1.14709000e+01 1.72341000e+01	N
atom  4.33938000e+00 1.04117000e+01 1.58919000e+01	Si
atom  3.85954000e+00 1.62166000e+01 1.55111000e+01	N
atom  3.37705000e+00 1.95072000e+01 1.53919000e+01	Si
atom  2.93743000e+00 1.57533000e+01 1.69022000e+01	Si
atom  3.60287000e+00 1.63736000e+01 1.83001000e+01	N
atom  2.50033000e+00 1.17405000e+01 2.14009000e+01	Si
atom  3.99124000e+00 1.22175000e+01 2.22330000e+01	N
atom  3.71935000e+00 1.05061000e+01 2.45564000e+01	N
atom  2.86446000e+00 1.50986000e+01 2.08984000e+01	N
atom  1.96333000e+00 1.50709000e+01 2.35769000e+01	N
atom  4.19746000e+00 1.21893000e+01 2.39139000e+01	Si
atom  1.92979000e+00 1.04916000e+01 2.23584000e+01	N
atom  2.85575000e+00 1.09769000e+01 1.98379000e+01	N
atom  3.11811000e+00 1.63319000e+01 2.41533000e+01	Si
atom  3.74149000e+00 1.93849000e+01 2.03261000e+01	N
atom  2.17520000e+00 1.76984000e+01 2.46082000e+01	N
atom  2.94153000e+00 1.64312000e+01 1.98570000e+01	Si
atom  2.07394000e+00 1.91761000e+01 2.00670000e+01	Si
atom  3.18147000e+00 1.27903000e+01 2.51890000e+01	N
atom  3.54969000e+00 1.46827000e+01 2.77429000e+01	N
atom  2.95648000e+00 1.41827000e+01 2.61770000e+01	Si
atom  2.64176000e+00 1.17560000e+01 2.87234000e+01	Si
atom  2.73326000e+00 1.13377000e+01 2.61648000e+01	Si
atom  3.99851000e+00 1.26828000e+01 2.94033000e+01	N
atom  3.56799000e+00 1.06256000e+01 2.75740000e+01	N
atom  4.25438000e+00 1.94821000e+01 2.50311000e+01	N
atom  3.89669000e+00 1.57504000e+01 2.56247000e+01	N
atom  3.97965000e+00 1.86294000e+01 2.86693000e+01	Si
atom  2.93926000e+00 1.79583000e+01 2.72784000e+01	N
atom  2.91690000e+00 1.87778000e+01 2.57698000e+01	Si
atom  4.13318000e+00 1.70042000e+01 2.93485000e+01	N
atom  3.76815000e+00 1.64265000e+01 2.72928000e+01	Si
atom  2.60013000e+00 1.93027000e+01 2.93905000e+01	N
atom  2.93049000e+00 1.24318000e+01 3.20632000e+01	N
atom  3.27095000e+00 1.20172000e+01 3.37653000e+01	Si
atom  2.62005000e+00 1.05156000e+01 3.17431000e+01	Si
atom  3.12499000e+00 1.49521000e+01 3.10030000e+01	N
atom  4.24597000e+00 1.05545000e+01 3.09482000e+01	N
atom  2.92703000e+00 1.03560000e+01 3.34567000e+01	N
atom  4.34369000e+00 1.22897000e+01 3.09874000e+01	Si
atom  2.63708000e+00 1.76223000e+01 3.17317000e+01	N
atom  2.80705000e+00 1.65186000e+01 3.04080000e+01	Si
atom  3.74982000e+00 1.87970000e+01 3.41516000e+01	N
atom  2.71657000e+00 1.89474000e+01 3.27600000e+01	Si
atom  2.58207000e+00 1.09697000e+01 3.80128000e+01	N
atom  3.54536000e+00 1.47492000e+01 3.56599000e+01	N
atom  3.55067000e+00 1.36991000e+01 3.80971000e+01	Si
atom  2.35943000e+00 1.24137000e+01 3.50903000e+01	N
atom  3.76001000e+00 1.29099000e+01 3.96021000e+01	N
atom  2.11168000e+00 1.41255000e+01 3.50976000e+01	Si
atom  4.22333000e+00 1.09466000e+01 3.73102000e+01	Si
atom  4.28345000e+00 1.02842000e+01 3.56977000e+01	N
atom  2.85676000e+00 1.13682000e+01 3.97878000e+01	Si
atom  3.59250000e+00 1.61928000e+01 3.66519000e+01	Si
atom  4.10896000e+00 1.94202000e+01 3.67128000e+01	N
atom  4.00801000e+00 1.55113000e+01 3.82713000e+01	N
atom  2.81638000e+00 1.88545000e+01 3.56957000e+01	Si
atom  2.31393000e+00 1.72575000e+01 3.60709000e+01	N
atom  3.03902000e+00 2.36220000e+01 2.43593000e+00	N
atom  3.41948000e+00 2.12458000e+01 1.42211000e+00	N
atom  2.45217000e+00 2.20317000e+01 2.62656000e+00	Si
atom  2.52946000e+00 2.49592000e+01 3.53700000e+00	Si
atom  2.30418000e+00 2.10701000e+01 4.07577000e+00	N
atom  1.80775000e+00 2.43317000e+01 1.24973000e+00	Si
atom  2.62310000e+00 2.55531000e+01 3.99478000e-01	N
atom  2.22442000e+00 2.81698000e+01 9.90890000e-01	N
atom  3.47918000e+00 2.68971000e+01 1.23299000e+00	Si
atom  3.53667000e+00 2.62761000e+01 2.89597000e+00	N
atom  3.92231000e+00 3.01692000e+01 2.68008000e+00	Si
atom  3.83759000e+00 2.22129000e+01 8.21440000e+00	N
atom  2.21772000e+00 2.45906000e+01 5.16981000e+00	N
atom  2.26836000e+00 2.09178000e+01 5.78054000e+00	Si
atom  2.14570000e+00 2.25386000e+01 8.30053000e+00	Si
atom  4.30601000e+00 2.05341000e+01 7.94833000e+00	Si
atom  3.06455000e+00 2.92015000e+01 9.58985000e+00	Si
atom  1.96378000e+00 2.63994000e+01 7.17670000e+00	N
atom  3.94160000e+00 2.97034000e+01 5.23052000e+00	Si
atom  2.32525000e+00 2.87817000e+01 5.32618000e+00	N
atom  2.27771000e+00 2.80506000e+01 6.95010000e+00	Si
atom  3.53795000e+00 2.85980000e+01 8.00664000e+00	N
atom  3.23214000e+00 2.54504000e+01 6.21904000e+00	Si
atom  2.61579000e+00 2.26096000e+01 1.41148000e+01	N
atom  2.86943000e+00 2.44358000e+01 1.04746000e+01	Si
atom  2.24947000e+00 2.34416000e+01 1.17560000e+01	N
atom  2.97308000e+00 2.05012000e+01 1.16989000e+01	N
atom  2.17293000e+00 2.41408000e+01 1.33886000e+01	Si
atom  2.19930000e+00 2.18052000e+01 1.24744000e+01	Si
atom  3.25649000e+00 2.53910000e+01 1.37189000e+01	N
atom  3.64672000e+00 2.96423000e+01 1.34150000e+01	Si
atom  2.73729000e+00 2.62125000e+01 1.08507000e+01	N