lattice_vector  3.99445604e+01 0.00000000e+00 0.00000000e+00
lattice_vector  2.44589890e-15 3.99445604e+01 0.00000000e+00
lattice_vector  2.44589890e-15 2.44589890e-15 3.99445604e+01
atom  1.13608000e+00 3.22056000e+00 1.35127000e+00	N
atom  1.15623000e+00 1.26716000e+00 3.90398000e+00	Si
atom  1.56411000e+00 4.85521000e+00 1.26506000e+00	Si
atom  1.55933000e+00 5.06849000e+00 4.56764000e+00	N
atom  -3.22316000e-01 2.14085000e+00 3.49230000e+00	N
atom  1.97907000e-01 5.99255000e+00 3.87328000e+00	Si
atom  4.36360000e-01 5.87748000e+00 2.20948000e+00	N
atom  1.64979000e+00 9.08724000e+00 8.56496000e-01	Si
atom  5.48397000e-02 8.37145000e+00 5.24044000e-01	N
atom  -1.01934000e-01 6.65546000e+00 6.86709000e-01	Si
atom  1.23656000e+00 5.89782000e+00 -1.94092000e-01	N
atom  -1.04419000e-01 4.42324000e+00 8.35522000e+00	N
atom  1.30070000e+00 3.67339000e+00 5.58674000e+00	Si
atom  1.58357000e+00 4.99911000e+00 8.11028000e+00	Si
atom  2.43344000e-01 1.61947000e+00 7.37576000e+00	N
atom  1.48966000e+00 7.75754000e-01 8.37192000e+00	Si
atom  -4.05696000e-01 3.52372000e+00 5.81288000e+00	N
atom  1.85448000e+00 7.91204000e+00 7.87787000e+00	Si
atom  3.26135000e-01 1.00679000e+01 5.89953000e+00	N
atom  1.66694000e-01 8.36565000e+00 7.75017000e+00	N
atom  5.87338000e-01 7.39525000e+00 4.90331000e+00	N
atom  -2.03707000e-01 8.46148000e+00 6.04023000e+00	Si
atom  3.62392000e-01 2.67994000e+00 1.09517000e+01	N
atom  6.50641000e-01 9.56651000e-01 1.10434000e+01	Si
atom  1.39340000e+00 4.07875000e+00 1.11292000e+01	Si
atom  7.67973000e-01 5.34516000e+00 1.21531000e+01	N
atom  -5.74918000e-01 3.76483000e-01 1.22109000e+01	N
atom  1.17669000e+00 7.82693000e+00 1.22858000e+01	N
atom  4.66506000e-02 9.46680000e+00 1.02406000e+01	N
atom  1.63148000e+00 6.35390000e+00 1.33348000e+01	Si
atom  -8.48493000e-02 9.75906000e+00 1.41735000e+01	N
atom  1.55856000e+00 8.84802000e+00 1.09427000e+01	Si
atom  -1.55675000e-01 8.22796000e+00 1.34127000e+01	Si
atom  -1.04172000e-02 6.59590000e+00 1.13856000e+01	Si
atom  3.01031000e-01 1.48872000e+00 1.76040000e+01	N
atom  6.89234000e-02 8.85191000e-01 1.60041000e+01	Si
atom  -8.70209000e-02 4.83480000e+00 1.72747000e+01	Si
atom  1.64753000e+00 4.94773000e+00 1.75431000e+01	N
atom  1.13129000e+00 5.45198000e-01 1.88635000e+01	Si
atom  1.51289000e+00 2.58711000e-01 1.52830000e+01	N
atom  6.26770000e-01 7.02859000e+00 1.46497000e+01	N
atom  1.20502000e+00 6.81107000e+00 1.97473000e+01	N
atom  1.57283000e+00 7.84696000e+00 1.59963000e+01	Si
atom  3.66119000e-01 8.90937000e+00 1.67462000e+01	N
atom  -5.22161000e-01 6.49245000e+00 1.71547000e+01	N
atom  1.12050000e+00 1.27363000e+00 2.04481000e+01	N
atom  -3.84913000e-02 4.99161000e+00 2.34087000e+01	N
atom  3.36308000e-02 3.34914000e+00 2.28574000e+01	Si
atom  1.64508000e+00 2.79678000e+00 2.27617000e+01	N
atom  1.51109000e+00 5.76050000e+00 2.36907000e+01	Si
atom  1.92731000e-01 8.44170000e+00 2.15083000e+01	N
atom  1.14814000e+00 7.37074000e+00 2.43841000e+01	N
atom  5.68458000e-01 9.97842000e+00 2.24323000e+01	Si
atom  5.62146000e-02 9.95757000e+00 1.98877000e+01	Si
atom  1.84813000e+00 8.08200000e+00 2.10634000e+01	Si
atom  1.76831000e+00 9.47913000e+00 1.98266000e+01	N
atom  -3.85407000e-01 8.09768000e+00 2.45044000e+01	Si
atom  1.61763000e+00 1.15890000e+00 2.82213000e+01	N
atom  5.93076000e-01 3.56047000e+00 2.87517000e+01	N
atom  1.42900000e+00 2.70095000e+00 2.74590000e+01	Si
atom  1.19327000e+00 2.56549000e+00 2.56963000e+01	N
atom  -2.56959000e-01 1.75115000e+00 2.54087000e+01	Si
atom  1.28817000e+00 9.40391000e+00 2.95443000e+01	Si
atom  6.03439000e-01 8.15331000e+00 2.85081000e+01	N
atom  1.87546000e+00 6.98153000e+00 2.78606000e+01	Si
atom  9.01586000e-01 1.00460000e+01 2.63322000e+01	N
atom  8.22995000e-01 5.90051000e+00 2.69540000e+01	N
atom  -2.29607000e-01 9.10707000e+00 2.72044000e+01	Si
atom  1.92376000e-01 2.41011000e+00 3.13664000e+01	N
atom  6.35967000e-01 4.23756000e+00 3.39361000e+01	Si
atom  1.57072000e+00 2.86510000e+00 3.37306000e+01	N
atom  1.76108000e+00 2.53791000e+00 3.19890000e+01	Si
atom  1.61649000e+00 4.69875000e+00 2.96472000e+01	Si
atom  -2.54809000e-01 5.58256000e+00 3.19948000e+01	Si
atom  1.23978000e+00 5.36881000e+00 3.27921000e+01	N
atom  2.39549000e-01 5.76102000e+00 3.03494000e+01	N
atom  7.54275000e-01 8.98560000e+00 3.11485000e+01	N
atom  1.14731000e+00 7.99326000e+00 3.37388000e+01	N
atom  3.65354000e-01 6.80644000e-01 3.66012000e+01	Si
atom  1.44211000e+00 1.33600000e+00 3.95070000e+01	N
atom  4.71036000e-01 2.41370000e+00 3.75239000e+01	N
atom  -2.76572000e-01 1.55047000e+00 3.90176000e+01	Si
atom  8.03006000e-01 5.11476000e+00 3.54279000e+01	N
atom  2.67191000e-01 6.30665000e+00 3.66281000e+01	Si
atom  2.69928000e-01 1.42619000e+01 2.27929000e+00	N
atom  1.34833000e-01 1.24586000e+01 2.85808000e+00	Si
atom  1.63759000e+00 1.07921000e+01 4.52275000e-01	N
atom  -1.30948000e-01 1.43490000e+01 5.82900000e-01	Si
atom  1.72841000e+00 1.25679000e+01 3.74326000e+00	N
atom  2.54483000e-01 1.16041000e+01 -4.36620000e-02	Si
atom  5.66864000e-01 1.58793000e+01 2.73021000e+00	Si
atom  1.40612000e+00 1.94083000e+01 2.03285000e+00	N
atom  2.66509000e-01 1.62869000e+01 4.41350000e+00	N
atom  1.23565000e+00 1.96033000e+01 2.89808000e-01	Si
atom  6.26405000e-01 2.01066000e+01 3.46450000e+00	Si
atom  1.84547000e+00 1.08657000e+01 8.64683000e+00	N
atom  1.54801000e+00 1.30297000e+01 5.40206000e+00	Si
atom  -1.54701000e-01 1.28769000e+01 5.76445000e+00	N
atom  1.66251000e+00 1.04730000e+01 6.89884000e+00	Si
atom  4.93212000e-01 1.11096000e+01 9.71086000e+00	Si
atom  1.00284000e+00 1.92892000e+01 8.88227000e+00	N
atom  1.23895000e+00 1.72559000e+01 7.01931000e+00	N
atom  7.65162000e-01 1.58573000e+01 6.01689000e+00	Si
atom  1.00175000e-01 1.81278000e+01 7.95901000e+00	Si
atom  5.77183000e-01 1.37171000e+01 1.14135000e+01	Si
atom  9.03776000e-01 1.21354000e+01 1.10073000e+01	N
atom  1.41041000e+00 1.29264000e+01 1.42863000e+01	Si
atom  1.17920000e+00 1.50011000e+01 1.04092000e+01	N
atom  -3.52581000e-01 1.28419000e+01 1.42205000e+01	N
atom  1.64729000e+00 1.37566000e+01 1.27849000e+01	N
atom  1.67808000e+00 1.74947000e+01 1.42286000e+01	N
atom  1.09363000e+00 1.77487000e+01 1.25102000e+01	Si
atom  5.80351000e-01 1.99161000e+01 1.04151000e+01	Si
atom  1.54110000e+00 1.91709000e+01 1.16041000e+01	N
atom  -2.89230000e-01 1.68672000e+01 1.17626000e+01	N
atom  -2.77485000e-01 1.58435000e+01 1.03691000e+01	Si
atom  1.17056000e+00 1.45478000e+01 1.92001000e+01	Si
atom  6.96760000e-01 1.33698000e+01 1.79152000e+01	N
atom  1.17311000e+00 1.14541000e+01 1.61111000e+01	N
atom  -5.38192000e-02 1.05787000e+01 1.69292000e+01	Si
atom  -3.06025000e-01 1.09999000e+01 1.85237000e+01	N
atom  1.47538000e+00 1.03396000e+01 1.48456000e+01	Si
atom  4.50742000e-01 1.83924000e+01 1.50348000e+01	Si
atom  -3.20733000e-01 1.73804000e+01 1.62656000e+01	N
atom  8.77549000e-01 1.95333000e+01 1.63146000e+01	N
atom  -9.45498000e-02 1.85982000e+01 1.75284000e+01	Si
atom  4.82906000e-01 1.80826000e+01 1.91285000e+01	N
atom  -4.64421000e-01 1.56044000e+01 1.89081000e+01	N
atom  1.31573000e+00 1.94051000e+01 1.99431000e+01	Si
atom  8.31004000e-01 1.48358000e+01 2.17338000e+01	Si
atom  3.83972000e-01 1.35502000e+01 2.04758000e+01	N
atom  1.04687000e+00 1.15351000e+01 2.32661000e+01	N
atom  -1.11076000e-01 1.38650000e+01 2.29472000e+01	N
atom  -2.78250000e-01 1.10457000e+01 2.11555000e+01	N
atom  1.58227000e+00 1.58127000e+01 2.04111000e+01	N
atom  -1.90928000e-01 1.67768000e+01 2.01521000e+01	Si
atom  -3.26073000e-01 1.62106000e+01 2.18695000e+01	N
atom  -1.10843000e-01 2.00580000e+01 2.06371000e+01	N
atom  7.08799000e-01 1.12807000e+01 2.50004000e+01	Si
atom  -5.36306000e-02 1.43166000e+01 2.85528000e+01	Si
atom  1.37401000e+00 1.33804000e+01 2.79411000e+01	N
atom  1.14831000e+00 1.09991000e+01 2.90752000e+01	N
atom  5.40433000e-01 1.59406000e+01 2.61014000e+01	Si
atom  8.86782000e-01 1.85733000e+01 2.82584000e+01	N
atom  1.05319000e-01 1.58891000e+01 2.78980000e+01	N
atom  1.67857000e+00 1.86125000e+01 2.51454000e+01	Si
atom  5.91527000e-01 1.70105000e+01 2.90852000e+01	Si
atom  3.71852000e-01 1.74569000e+01 2.52726000e+01	N
atom  1.22181000e+00 2.01195000e+01 2.60446000e+01	N
atom  1.52085000e-01 2.00712000e+01 2.88885000e+01	Si
atom  2.03671000e-02 1.46299000e+01 3.03107000e+01	N
atom  5.60911000e-01 1.35806000e+01 3.46666000e+01	N
atom  6.30752000e-01 1.50656000e+01 3.37344000e+01	Si
atom  8.06956000e-01 1.08670000e+01 3.43383000e+01	N
atom  1.58204000e+00 1.51182000e+01 3.08375000e+01	Si
atom  1.80850000e+00 1.53016000e+01 3.25753000e+01	N
atom  1.17132000e+00 1.89775000e+01 3.21120000e+01	N
atom  -2.81928000e-01 1.87190000e+01 3.13929000e+01	Si
atom  -4.04242000e-01 1.73264000e+01 3.04096000e+01	N
atom  -1.63553000e-01 1.88992000e+01 3.49020000e+01	N
atom  1.10888000e+00 1.21785000e+01 3.55607000e+01	Si
atom  4.54185000e-01 1.37800000e+01 3.77422000e+01	Si
atom  2.18992000e-02 1.23884000e+01 3.68410000e+01	N
atom  4.13826000e-01 1.32135000e+01 3.93614000e+01	N
atom  4.68562000e-01 1.58552000e+01 3.98442000e+01	N
atom  1.03490000e+00 2.00200000e+01 3.53480000e+01	Si
atom  7.81075000e-01 1.62699000e+01 3.50354000e+01	N
atom  4.85487000e-02 1.73921000e+01 3.73403000e+01	N
atom  1.71376000e+00 1.95384000e+01 3.69060000e+01	N
atom  1.62556000e+00 1.80319000e+01 3.76587000e+01	Si
atom  -4.68990000e-01 1.73436000e+01 3.56919000e+01	Si
atom  9.94038000e-01 2.41219000e+01 2.63256000e+00	N
atom  -3.53773000e-02 2.26655000e+01 6.69232000e-01	N
atom  1.54803000e+00 2.44792000e+01 4.21442000e+00	Si
atom  1.83009000e+00 2.07420000e+01 4.60840000e+00	N
atom  3.07198000e-01 2.75089000e+01 2.07087000e+00	N
atom  3.55032000e-01 2.63525000e+01 7.99532000e-01	Si
atom  1.50795000e+00 2.87316000e+01 2.37133000e+00	Si
atom  1.67082000e+00 2.87163000e+01 4.10644000e+00	N
atom  7.70709000e-01 2.45374000e+01 6.63151000e+00	Si
atom  1.03678000e+00 2.16269000e+01 5.91832000e+00	Si
atom  4.65452000e-01 2.38589000e+01 8.26060000e+00	N
atom  1.34151000e+00 2.25123000e+01 8.88655000e+00	Si
atom  1.26819000e+00 2.32834000e+01 5.50622000e+00	N
atom  1.71394000e+00 2.15096000e+01 7.55278000e+00	N
atom  3.49450000e-01 2.87628000e+01 7.60414000e+00	Si
atom  1.56155000e+00 2.83239000e+01 8.81960000e+00	N
atom  1.51156000e+00 2.73673000e+01 5.18719000e+00	Si
atom  1.86795000e-01 2.77804000e+01 6.28233000e+00	N
atom  7.97914000e-01 2.58517000e+01 4.89852000e+00	N
atom  4.65384000e-01 2.37287000e+01 1.30176000e+01	N
atom  6.11059000e-01 2.17153000e+01 1.02648000e+01	N
atom  1.44368000e-01 2.24739000e+01 1.42466000e+01	Si
atom  2.09045000e-01 2.24521000e+01 1.17719000e+01	Si
atom  9.53877000e-03 2.12457000e+01 1.30237000e+01	N
atom  1.19868000e-01 2.68043000e+01 1.38910000e+01	N
atom  5.53509000e-01 2.82579000e+01 1.16328000e+01	N
atom  6.34889000e-01 2.67311000e+01 1.22878000e+01	Si
atom  4.49516000e-01 2.89239000e+01 1.00769000e+01	Si
atom  7.44710000e-01 2.98102000e+01 1.24421000e+01	Si
atom  1.53064000e+00 3.00989000e+01 1.39529000e+01	N
atom  9.61737000e-01 2.18959000e+01 1.85658000e+01	Si
atom  6.31090000e-01 2.47544000e+01 1.59626000e+01	N
atom  7.97557000e-01 2.42020000e+01 1.93479000e+01	Si
atom  1.63141000e+00 2.23309000e+01 1.51652000e+01	N
atom  1.59220000e+00 2.33180000e+01 1.80188000e+01	N
atom  -4.40085000e-01 2.53352000e+01 1.87240000e+01	N
atom  1.83807000e+00 2.36083000e+01 1.63296000e+01	Si
atom  8.60758000e-01 2.63209000e+01 1.53158000e+01	Si
atom  1.35241000e+00 2.85234000e+01 1.91256000e+01	Si
atom  -2.71098000e-01 2.81168000e+01 1.85894000e+01	N
atom  8.23726000e-01 2.90137000e+01 1.62973000e+01	N
atom  1.32562000e+00 3.02186000e+01 1.94188000e+01	N
atom  3.59469000e-01 2.16598000e+01 2.29651000e+01	N
atom  9.03382000e-01 2.26240000e+01 2.03256000e+01	N
atom  -8.24196000e-02 2.16721000e+01 2.13359000e+01	Si
atom  -5.10142000e-01 2.43289000e+01 2.35106000e+01	N
atom  9.30685000e-01 2.52492000e+01 2.40078000e+01	Si
atom  1.40307000e+00 2.76230000e+01 2.21838000e+01	Si
atom  -6.80657000e-02 2.82963000e+01 2.27425000e+01	N
atom  1.65138000e+00 2.59384000e+01 2.25316000e+01	N
atom  1.60036000e+00 2.75734000e+01 2.05160000e+01	N
atom  -8.25174000e-02 2.24048000e+01 2.54763000e+01	N
atom  1.04222000e+00 2.36475000e+01 2.61699000e+01	Si
atom  3.43240000e-01 2.48088000e+01 2.72885000e+01	N
atom  -3.74163000e-01 2.07982000e+01 2.61101000e+01	Si
atom  1.75024000e+00 2.09196000e+01 2.93596000e+01	N
atom  1.86517000e+00 2.25967000e+01 2.89071000e+01	Si
atom  -5.06634000e-01 2.46295000e+01 2.87646000e+01	Si
atom  6.27730000e-01 2.36143000e+01 2.96081000e+01	N
atom  1.06249000e+00 2.63537000e+01 2.66850000e+01	Si
atom  -4.07237000e-02 2.88896000e+01 2.85462000e+01	Si
atom  5.01382000e-01 2.66329000e+01 2.50837000e+01	N
atom  3.02377000e-01 2.74814000e+01 2.77200000e+01	N
atom  1.63596000e+00 3.01132000e+01 2.51154000e+01	N
atom  7.05948000e-01 3.03218000e+01 2.77790000e+01	N
atom  3.33027000e-01 2.47827000e+01 3.24132000e+01	N
atom  1.73245000e+00 2.31107000e+01 3.43131000e+01	N
atom  1.75457000e+00 2.44744000e+01 3.33441000e+01	Si
atom  1.02366000e+00 2.83970000e+01 3.29921000e+01	Si
atom  3.25713000e-02 2.61624000e+01 3.12276000e+01	Si
atom  1.50325000e+00 2.61387000e+01 3.03039000e+01	N
atom  9.27052000e-01 2.88805000e+01 3.00666000e+01	N
atom  -2.22715000e-01 2.74577000e+01 3.23647000e+01	N
atom  8.67389000e-01 3.00844000e+01 3.24717000e+01	N
atom  1.04128000e+00 2.86308000e+01 3.46542000e+01	N
atom  1.56198000e-01 2.28326000e+01 3.49659000e+01	Si
atom  6.30477000e-01 2.48086000e+01 3.75906000e+01	Si
atom  5.47701000e-02 2.13549000e+01 3.58389000e+01	N
atom  3.65924000e-02 2.41018000e+01 3.60459000e+01	N
atom  1.65569000e+00 2.36260000e+01 3.83353000e+01	N
atom  1.98212000e+00 2.09743000e+01 3.92738000e+01	N
atom  1.50781000e+00 2.26128000e+01 3.98105000e+01	Si
atom  -5.04772000e-01 2.96443000e+01 3.96246000e+01	N
atom  1.46733000e+00 2.62357000e+01 3.69726000e+01	N
atom  -3.28885000e-01 2.70849000e+01 3.92961000e+01	N
atom  7.21937000e-01 2.88648000e+01 3.73655000e+01	N
atom  3.95072000e-01 2.97071000e+01 3.58794000e+01	Si
atom  1.99579000e-01 3.17299000e+01 4.10583000e+00	N
atom  5.44263000e-01 3.39213000e+01 7.31592000e-01	Si
atom  1.49408000e+00 3.16631000e+01 2.86134000e+00	Si
atom  7.36664000e-01 3.46421000e+01 3.07250000e+00	Si
atom  1.42974000e+00 3.32509000e+01 2.17755000e+00	N
atom  7.70481000e-01 3.06957000e+01 1.69384000e-01	Si
atom  -3.50517000e-02 3.22595000e+01 1.06852000e-01	N
atom  2.58886000e-01 3.44692000e+01 4.69457000e+00	N
atom  1.08909000e+00 3.03368000e+01 1.86270000e+00	N
atom  1.32194000e+00 3.70497000e+01 1.82163000e+00	Si
atom  3.90468000e-01 3.80172000e+01 2.98925000e+00	N
atom  1.29540000e+00 3.84607000e+01 4.40049000e+00	Si
atom  3.93935000e-01 3.70433000e+01 3.81926000e-01	N
atom  1.97376000e+00 3.55931000e+01 2.33268000e+00	N
atom  7.45040000e-01 3.28532000e+01 5.35210000e+00	Si
atom  5.81423000e-01 3.04241000e+01 7.28124000e+00	N
atom  1.39370000e+00 3.52632000e+01 7.37495000e+00	N
atom  1.82115000e+00 3.78533000e+01 8.53689000e+00	Si
atom  -1.40998000e-01 3.56505000e+01 8.10499000e+00	Si
atom  3.72415000e-01 3.99826000e+01 9.54535000e+00	N
atom  1.25438000e+00 3.55626000e+01 5.63304000e+00	Si
atom  5.49448000e-01 4.00067000e+01 4.93742000e+00	N
atom  7.45074000e-01 3.72083000e+01 5.47792000e+00	N
atom  1.94649000e-01 3.74415000e+01 8.42041000e+00	N
atom  2.53069000e-01 3.18382000e+01 1.09501000e+01	Si
atom  9.01130000e-01 3.32608000e+01 1.17017000e+01	N
atom  7.67233000e-01 3.44866000e+01 1.29331000e+01	Si
atom  1.36681000e+00 3.45516000e+01 1.05353000e+01	Si
atom  1.03658000e+00 3.39481000e+01 1.45353000e+01	N
atom  1.36168000e+00 3.04382000e+01 1.07367000e+01	N
atom  -2.22109000e-02 3.51772000e+01 9.79562000e+00	N
atom  1.72566000e+00 3.56142000e+01 1.19143000e+01	N
atom  -8.67913000e-02 3.82186000e+01 1.40627000e+01	N
atom  -1.18735000e-01 3.76114000e+01 1.13008000e+01	N
atom  1.53037000e+00 3.86006000e+01 1.44731000e+01	Si
atom  1.63728000e+00 3.73683000e+01 1.17006000e+01	Si
atom  3.85547000e-01 3.17723000e+01 1.94201000e+01	Si
atom  1.47990000e+00 3.29513000e+01 1.86237000e+01	N
atom  8.42714000e-01 3.19042000e+01 1.62424000e+01	N
atom  -1.31046000e-01 3.31773000e+01 1.55175000e+01	Si
atom  5.89363000e-01 3.04654000e+01 1.52980000e+01	Si
atom  -1.18443000e-01 3.57020000e+01 1.74511000e+01	Si
atom  6.43627000e-02 3.61370000e+01 1.91003000e+01	N
atom  1.17050000e+00 3.74828000e+01 1.94102000e+01	Si
atom  1.52153000e+00 3.54222000e+01 1.67989000e+01	N
atom  2.80380000e-01 3.89207000e+01 1.88647000e+01	N
atom  8.15758000e-01 3.33923000e+01 2.37253000e+01	N
atom  5.80820000e-01 3.38075000e+01 2.20266000e+01	Si
atom  1.15505000e-01 3.24554000e+01 2.10936000e+01	N
atom  8.20092000e-01 3.15679000e+01 2.42176000e+01	Si
atom  1.20081000e+00 3.77792000e+01 2.11284000e+01	N
atom  4.59540000e-01 3.84093000e+01 2.46097000e+01	Si
atom  -2.85839000e-01 3.82955000e+01 2.17210000e+01	Si
atom  1.77990000e+00 3.90393000e+01 2.35831000e+01	N
atom  -3.45825000e-01 3.75649000e+01 2.33083000e+01	N
atom  -4.41992000e-01 3.48895000e+01 2.77672000e+01	Si
atom  -2.67703000e-01 3.17507000e+01 2.73609000e+01	Si
atom  5.36909000e-01 3.39033000e+01 2.53143000e+01	Si
atom  1.20646000e-01 3.32233000e+01 2.81929000e+01	N
atom  3.52103000e-01 3.22444000e+01 2.57861000e+01	N
atom  1.36099000e+00 3.31572000e+01 2.94062000e+01	Si
atom  3.53410000e-01 4.01331000e+01 2.87596000e+01	Si
atom  7.78503000e-01 3.61777000e+01 2.82680000e+01	N
atom  1.23917000e+00 3.73693000e+01 2.57091000e+01	N
atom  -8.65691000e-03 3.89515000e+01 2.75771000e+01	N
atom  1.29726000e+00 3.77052000e+01 2.74219000e+01	Si
atom  9.30105000e-01 3.12212000e+01 3.37603000e+01	Si
atom  7.64756000e-01 3.44254000e+01 3.04103000e+01	N
atom  -1.74240000e-01 3.47756000e+01 3.29768000e+01	N
atom  6.38087000e-01 3.04040000e+01 3.07455000e+01	Si
atom  1.74043000e+00 3.17233000e+01 3.03813000e+01	N
atom  -2.53782000e-01 3.52862000e+01 3.13918000e+01	Si
atom  7.03249000e-01 3.54751000e+01 3.43298000e+01	Si
atom  -1.67546000e-02 3.83584000e+01 3.13440000e+01	Si
atom  5.05641000e-01 3.84544000e+01 3.30310000e+01	N
atom  7.81616000e-01 3.94764000e+01 3.02901000e+01	N
atom  5.72751000e-01 3.67967000e+01 3.09662000e+01	N
atom  -2.16293000e-01 3.82905000e+01 3.45606000e+01	Si
atom  1.50699000e+00 3.58625000e+01 2.98207000e+01	Si
atom  1.40099000e+00 3.40189000e+01 3.49993000e+01	N
atom  8.14505000e-02 3.47271000e+01 3.91165000e+01	N
atom  1.36154000e+00 3.11396000e+01 3.54505000e+01	N
atom  8.96569000e-01 3.27652000e+01 3.61010000e+01	Si
atom  1.78457000e+00 3.48314000e+01 3.83506000e+01	Si
atom  1.53071000e+00 3.30639000e+01 3.76986000e+01	N
atom  -3.20640000e-01 3.31565000e+01 3.83892000e+01	Si
atom  1.75790000e-01 3.72010000e+01 3.67772000e+01	Si
atom  -2.43588000e-01 3.66326000e+01 3.51575000e+01	N
atom  1.48189000e+00 3.62363000e+01 3.73133000e+01	N
atom  6.00597000e-01 3.88250000e+01 3.59888000e+01	N
atom  3.82693000e+00 2.24422000e+00 1.03058000e+00	N
atom  3.22891000e+00 5.06656000e+00 3.72134000e+00	Si
atom  3.07775000e+00 5.07124000e+00 1.92920000e+00	N
atom  2.10189000e+00 1.87329000e+00 1.05847000e+00	Si
atom  2.05123000e+00 2.30533000e+00 4.94174000e+00	N
atom  3.80521000e+00 2.32810000e+00 4.89295000e+00	Si
atom  1.99904000e+00 7.64175000e-01 2.47318000e+00	N
atom  4.17741000e+00 8.73214000e+00 5.45771000e-01	Si
atom  3.74654000e+00 7.92523000e+00 3.15903000e+00	Si
atom  3.38156000e+00 6.73609000e+00 4.34655000e+00	N
atom  2.42649000e+00 8.65588000e+00 2.27662000e+00	N
atom  2.24873000e+00 3.80520000e+00 7.08773000e+00	N
atom  2.28216000e+00 4.84304000e+00 9.77217000e+00	N
atom  2.74792000e+00 1.88305000e+00 8.90398000e+00	N
atom  3.59549000e+00 2.86718000e+00 7.78214000e+00	Si
atom  3.99673000e+00 5.09934000e+00 9.68878000e+00	Si
atom  2.11555000e+00 6.59154000e+00 5.45207000e+00	Si
atom  2.71037000e+00 9.00713000e+00 6.94724000e+00	N
atom  2.14360000e+00 7.87508000e+00 9.59890000e+00	N
atom  1.93961000e+00 6.38078000e+00 7.12616000e+00	N
atom  3.84548000e+00 7.94483000e+00 9.86287000e+00	Si
atom  2.82698000e+00 3.31473000e+00 1.17024000e+01	N
atom  3.11416000e+00 2.03850000e+00 1.05868000e+01	Si
atom  3.47080000e+00 1.17363000e+00 1.36488000e+01	N
atom  2.33059000e+00 7.24197000e-01 1.13283000e+01	N
atom  3.96799000e+00 2.54959000e+00 1.27824000e+01	Si
atom  3.25983000e+00 5.89755000e+00 1.33567000e+01	N
atom  2.68442000e+00 1.01113000e+01 1.11336000e+01	N
atom  4.34122000e+00 8.07098000e+00 1.14559000e+01	N
atom  3.73067000e+00 1.47106000e+00 1.79741000e+01	Si
atom  3.65085000e+00 3.16300000e+00 1.80570000e+01	N
atom  2.35228000e+00 3.03614000e+00 1.55855000e+01	N
atom  2.80899000e+00 1.42832000e+00 1.51998000e+01	Si
atom  2.90174000e+00 4.07369000e+00 1.68078000e+01	Si
atom  3.92466000e+00 8.89903000e-01 1.63916000e+01	N
atom  4.15664000e+00 3.78823000e+00 1.96190000e+01	Si
atom  4.23234000e+00 9.43236000e+00 1.50746000e+01	Si
atom  4.27246000e+00 9.28742000e+00 1.80872000e+01	N
atom  2.28098000e+00 6.17197000e+00 1.86074000e+01	Si
atom  2.67279000e+00 7.23040000e+00 1.71950000e+01	N
atom  2.54147000e+00 9.07263000e+00 1.51168000e+01	N
atom  3.49012000e+00 9.40464000e+00 1.96314000e+01	Si
atom  2.42298000e+00 1.80213000e+00 2.15423000e+01	Si
atom  2.72127000e+00 4.77184000e+00 2.43622000e+01	N
atom  3.65191000e+00 9.48321000e-01 2.25547000e+01	N
atom  3.81216000e+00 2.49405000e+00 2.06751000e+01	N
atom  3.33639000e+00 5.29729000e+00 1.97149000e+01	N
atom  2.67092000e+00 8.07940000e+00 2.38053000e+01	Si
atom  3.66536000e+00 7.86387000e+00 2.05817000e+01	N
atom  3.53636000e+00 6.26195000e+00 2.11185000e+01	Si
atom  3.99411000e+00 7.10758000e+00 2.43998000e+01	N
atom  2.27699000e+00 9.19943000e+00 2.24950000e+01	N
atom  4.20822000e+00 5.51811000e+00 2.37673000e+01	Si
atom  2.29811000e+00 6.58983000e+00 2.22971000e+01	N
atom  3.05061000e+00 9.49973000e+00 2.48923000e+01	N
atom  2.72823000e+00 3.26057000e+00 2.52510000e+01	Si
atom  2.90591000e+00 3.54595000e+00 2.70560000e+01	N
atom  4.19217000e+00 2.41990000e+00 2.49227000e+01	N
atom  4.34255000e+00 1.39282000e+00 2.74460000e+01	N
atom  2.68757000e+00 5.95217000e+00 2.89864000e+01	N
atom  4.00445000e+00 1.00997000e+01 2.89608000e+01	Si
atom  3.01498000e+00 7.90152000e+00 2.70611000e+01	N
atom  2.53018000e+00 9.53872000e+00 2.65204000e+01	Si
atom  2.44593000e+00 3.61387000e+00 3.07637000e+01	N
atom  2.71923000e+00 1.08613000e+00 3.18618000e+01	N
atom  4.00099000e+00 1.69694000e+00 3.41874000e+01	N
atom  4.20341000e+00 3.51311000e+00 3.06266000e+01	Si
atom  3.68463000e+00 3.68731000e-01 3.31376000e+01	Si
atom  3.22529000e+00 7.27750000e+00 3.20585000e+01	N
atom  2.49602000e+00 8.79125000e+00 3.15742000e+01	Si
atom  2.21139000e+00 6.72897000e+00 3.33488000e+01	Si
atom  2.97944000e+00 9.96125000e+00 3.27351000e+01	N
atom  2.95739000e+00 9.07220000e+00 2.98901000e+01	N
atom  1.94715000e+00 9.57707000e+00 3.41299000e+01	Si
atom  2.58311000e+00 2.25899000e+00 3.49998000e+01	Si
atom  3.07752000e+00 3.66175000e+00 3.58837000e+01	N
atom  3.52152000e+00 2.82557000e+00 3.84891000e+01	N
atom  2.13084000e+00 9.64566000e-01 3.62869000e+01	N
atom  2.33643000e+00 1.53332000e+00 3.80044000e+01	Si
atom  3.64082000e+00 3.63984000e-01 3.86178000e+01	N
atom  2.42215000e+00 5.27741000e+00 3.58409000e+01	Si
atom  3.99532000e+00 6.07093000e+00 3.92153000e+01	N
atom  3.16316000e+00 7.64071000e+00 3.60407000e+01	Si
atom  2.44583000e+00 6.79657000e+00 3.88215000e+01	Si
atom  2.82419000e+00 9.18379000e+00 3.54997000e+01	N
atom  3.11020000e+00 6.38067000e+00 3.47417000e+01	N
atom  2.75603000e+00 8.34862000e+00 3.96124000e+01	N
atom  2.01119000e+00 6.57491000e+00 3.70750000e+01	N
atom  3.38122000e+00 1.28712000e+01 3.21932000e+00	Si
atom  3.28486000e+00 1.29567000e+01 1.53443000e+00	N
atom  3.25664000e+00 1.15631000e+01 4.72028000e-01	Si
atom  3.90153000e+00 1.40854000e+01 3.63628000e-01	Si
atom  4.14595000e+00 1.43722000e+01 3.93524000e+00	N
atom  3.58850000e+00 1.87399000e+01 3.70666000e+00	N
atom  2.76558000e+00 1.82828000e+01 2.27427000e+00	Si
atom  3.80298000e+00 1.91158000e+01 1.00648000e+00	N
atom  2.02433000e+00 1.67247000e+01 2.06972000e+00	N
atom  1.99207000e+00 1.64842000e+01 3.19204000e-01	Si
atom  3.90975000e+00 1.23183000e+01 7.14704000e+00	Si
atom  2.47103000e+00 1.18510000e+01 6.32716000e+00	N
atom  3.75929000e+00 1.49183000e+01 5.54431000e+00	Si
atom  3.39106000e+00 1.08237000e+01 9.49392000e+00	Si
atom  3.98032000e+00 1.23835000e+01 8.90013000e+00	N
atom  2.04867000e+00 1.46083000e+01 5.86352000e+00	N
atom  3.88063000e+00 1.64265000e+01 6.38598000e+00	N
atom  2.44696000e+00 2.01694000e+01 8.32160000e+00	Si
atom  2.92228000e+00 1.72810000e+01 7.61004000e+00	Si
atom  3.42872000e+00 1.90227000e+01 7.41008000e+00	N
atom  3.20573000e+00 1.67643000e+01 9.26149000e+00	N
atom  3.32907000e+00 1.39533000e+01 1.24017000e+01	Si
atom  2.28315000e+00 1.16684000e+01 1.20027000e+01	Si
atom  3.81918000e+00 1.24047000e+01 1.19679000e+01	N
atom  4.00739000e+00 1.47229000e+01 1.09571000e+01	N
atom  2.02494000e+00 1.14112000e+01 1.36701000e+01	N
atom  3.91592000e+00 1.51126000e+01 1.35264000e+01	N
atom  2.53390000e+00 1.67888000e+01 1.20048000e+01	N
atom  3.13206000e+00 1.67998000e+01 1.36280000e+01	Si
atom  2.66422000e+00 1.58070000e+01 1.06028000e+01	Si
atom  3.05799000e+00 2.00174000e+01 1.14756000e+01	Si
atom  2.85817000e+00 1.43385000e+01 1.86880000e+01	N
atom  2.54902000e+00 1.35383000e+01 1.55017000e+01	N
atom  3.28401000e+00 1.18804000e+01 1.79396000e+01	N
atom  3.88990000e+00 1.45768000e+01 1.51786000e+01	Si
atom  1.99944000e+00 1.27458000e+01 1.69873000e+01	Si
atom  4.22935000e+00 1.31015000e+01 1.88874000e+01	Si
atom  3.79811000e+00 1.69489000e+01 1.89896000e+01	N
atom  3.98809000e+00 1.55332000e+01 1.79816000e+01	Si
atom  3.27707000e+00 1.87018000e+01 1.70122000e+01	N
atom  3.66067000e+00 1.58486000e+01 1.63335000e+01	N
atom  2.51435000e+00 2.01395000e+01 1.62970000e+01	Si
atom  2.34050000e+00 1.41850000e+01 2.25190000e+01	N
atom  3.66810000e+00 1.17420000e+01 2.28626000e+01	N
atom  2.35466000e+00 1.27302000e+01 2.34876000e+01	Si
atom  3.92756000e+00 1.44684000e+01 2.18836000e+01	Si
atom  4.06983000e+00 1.03894000e+01 2.39172000e+01	Si
atom  2.94749000e+00 1.69120000e+01 2.04261000e+01	Si
atom  3.12175000e+00 1.92888000e+01 2.22542000e+01	Si
atom  2.45429000e+00 1.84619000e+01 2.08839000e+01	N
atom  2.05747000e+00 1.92637000e+01 2.36306000e+01	N
atom  4.16078000e+00 1.62229000e+01 2.14963000e+01	N
atom  2.21963000e+00 1.25013000e+01 2.91618000e+01	Si
atom  3.88311000e+00 1.33843000e+01 2.71272000e+01	N
atom  2.33382000e+00 1.37073000e+01 2.65276000e+01	Si
atom  3.75763000e+00 1.05213000e+01 2.73505000e+01	N
atom  2.06704000e+00 1.25467000e+01 2.52691000e+01	N
atom  3.69499000e+00 1.17009000e+01 2.95920000e+01	N
atom  2.17299000e+00 1.53893000e+01 2.60221000e+01	N
atom  3.33697000e+00 1.87065000e+01 2.92204000e+01	N
atom  3.46885000e+00 2.03586000e+01 2.71247000e+01	N
atom  2.81233000e+00 1.79067000e+01 2.63952000e+01	N
atom  2.54985000e+00 1.89983000e+01 2.76853000e+01	Si
atom  3.70728000e+00 1.69728000e+01 2.93868000e+01	Si
atom  3.57118000e+00 1.63738000e+01 2.63870000e+01	Si
atom  3.93411000e+00 1.58963000e+01 2.80345000e+01	N
atom  2.49410000e+00 1.37349000e+01 3.03005000e+01	N
atom  4.10112000e+00 1.30651000e+01 3.06179000e+01	Si
atom  4.31254000e+00 1.10379000e+01 3.30003000e+01	Si
atom  3.31357000e+00 2.02477000e+01 2.99851000e+01	Si
atom  2.67557000e+00 1.93760000e+01 3.28633000e+01	Si
atom  3.17220000e+00 1.61666000e+01 3.32985000e+01	Si
atom  3.57931000e+00 1.78102000e+01 3.28426000e+01	N
atom  2.10294000e+00 1.64839000e+01 2.99039000e+01	N
atom  3.80151000e+00 1.26199000e+01 3.90861000e+01	N
atom  2.70526000e+00 1.19361000e+01 3.62807000e+01	N
atom  3.28439000e+00 1.31196000e+01 3.73877000e+01	Si
atom  3.70531000e+00 1.05998000e+01 3.60390000e+01	Si
atom  1.98688000e+00 1.43086000e+01 3.71065000e+01	N
atom  3.39048000e+00 1.56952000e+01 3.48784000e+01	N
atom  2.01316000e+00 1.81382000e+01 3.93820000e+01	N
atom  3.24113000e+00 1.54346000e+01 3.95838000e+01	N
atom  3.70920000e+00 1.86906000e+01 3.92959000e+01	Si
atom  4.06939000e+00 1.61134000e+01 3.81924000e+01	Si
atom  4.06415000e+00 1.98706000e+01 3.80149000e+01	N
atom  2.10413000e+00 1.57211000e+01 3.60814000e+01	Si
atom  2.81295000e+00 1.68382000e+01 3.71636000e+01	N
atom  2.82212000e+00 2.32559000e+01 8.25121000e-01	N
atom  2.49725000e+00 2.45983000e+01 1.90512000e+00	Si
atom  3.14205000e+00 2.48029000e+01 3.53726000e+00	N
atom  3.54126000e+00 2.04730000e+01 4.20693000e+00	Si
atom  4.39730000e+00 2.14041000e+01 3.01874000e+00	N
atom  3.06300000e+00 2.82313000e+01 1.88250000e+00	N
atom  3.06218000e+00 2.71797000e+01 4.92021000e-01	Si
atom  3.01754000e+00 2.98013000e+01 4.66744000e+00	Si
atom  4.18759000e+00 2.59628000e+01 4.32561000e+00	Si
atom  2.01260000e+00 2.58690000e+01 7.51706000e-01	N
atom  2.83147000e+00 2.47673000e+01 8.80860000e+00	Si
atom  2.59923000e+00 2.33512000e+01 9.66705000e+00	N
atom  3.18941000e+00 2.04774000e+01 9.81045000e+00	N
atom  2.24938000e+00 2.53424000e+01 7.21551000e+00	N
atom  4.03265000e+00 2.72610000e+01 7.72687000e+00	N
atom  3.06732000e+00 2.96585000e+01 6.44120000e+00	N
atom  3.18613000e+00 2.77337000e+01 9.23769000e+00	Si
atom  3.95631000e+00 2.57649000e+01 6.91592000e+00	Si
atom  3.20576000e+00 2.70521000e+01 5.33383000e+00	N
atom  4.22182000e+00 2.82684000e+01 6.32315000e+00	Si
atom  3.95471000e+00 2.91016000e+01 9.96089000e+00	N
atom  2.76789000e+00 2.16951000e+01 1.21615000e+01	N
atom  2.83391000e+00 2.17824000e+01 1.39602000e+01	Si
atom  3.66241000e+00 2.27162000e+01 1.08608000e+01	Si
atom  4.00525000e+00 2.40651000e+01 1.18994000e+01	N
atom  3.09361000e+00 2.02408000e+01 1.46445000e+01	N
atom  3.31633000e+00 2.99668000e+01 1.41630000e+01	Si
atom  3.55633000e+00 2.56949000e+01 1.14903000e+01	Si
atom  2.33314000e+00 2.62811000e+01 1.25489000e+01	N
atom  3.21553000e+00 2.68483000e+01 1.38788000e+01	Si
atom  3.89033000e+00 2.84543000e+01 1.34012000e+01	N
atom  3.07799000e+00 2.61550000e+01 9.92421000e+00	N
atom  2.06779000e+00 2.05873000e+01 1.88783000e+01	N