lattice_vector  3.98603411e+01 0.00000000e+00 0.00000000e+00
lattice_vector  2.44074196e-15 3.98603411e+01 0.00000000e+00
lattice_vector  2.44074196e-15 2.44074196e-15 3.98603411e+01
atom  9.06090000e-01 4.00641000e+00 2.80177000e+00	Si
atom  1.41252000e+00 1.36294000e+00 3.59458000e+00	Si
atom  -8.05342000e-02 1.29995000e+00 4.60204000e+00	N
atom  8.33993000e-01 5.86809000e-01 2.07497000e+00	N
atom  -2.26113000e-01 4.19959000e+00 4.04431000e+00	N
atom  -2.75550000e-01 1.50386000e+00 1.19109000e+00	Si
atom  -2.31633000e-01 3.19547000e+00 1.61928000e+00	N
atom  8.39128000e-01 7.25687000e+00 4.10678000e+00	Si
atom  1.29502000e+00 8.96162000e+00 1.58551000e+00	Si
atom  1.41056000e-01 6.23728000e+00 4.43610000e-01	N
atom  1.33949000e+00 8.64601000e+00 3.27575000e+00	N
atom  -2.80834000e-01 8.83889000e+00 1.03198000e+00	N
atom  1.84918000e+00 6.03775000e+00 6.77631000e-01	Si
atom  9.31468000e-01 4.99754000e+00 6.85157000e+00	N
atom  4.88956000e-01 1.85305000e+00 9.30422000e+00	Si
atom  7.66078000e-01 3.42814000e+00 8.69660000e+00	N
atom  1.46074000e+00 6.83034000e-01 8.44750000e+00	N
atom  2.28848000e-01 7.68945000e+00 5.63280000e+00	N
atom  1.17280000e+00 8.62640000e+00 6.74280000e+00	Si
atom  1.02672000e+00 8.93328000e+00 9.60038000e+00	Si
atom  1.44555000e-01 8.94869000e+00 8.08615000e+00	N
atom  -3.45586000e-01 4.12246000e+00 7.57396000e+00	Si
atom  8.96723000e-01 2.42390000e+00 1.09440000e+01	N
atom  1.72264000e-01 3.56885000e+00 1.40335000e+01	N
atom  7.09009000e-01 2.49216000e+00 1.26709000e+01	Si
atom  1.44502000e+00 4.09301000e+00 1.03472000e+01	Si
atom  1.57302000e-01 5.11961000e+00 1.10003000e+01	N
atom  6.80827000e-01 6.67503000e+00 1.16364000e+01	Si
atom  4.74938000e-01 9.86821000e+00 1.42877000e+01	Si
atom  1.42671000e+00 7.35698000e+00 1.01487000e+01	N
atom  -1.65286000e-01 9.98185000e+00 1.03189000e+01	N
atom  -3.46911000e-01 8.41970000e+00 1.50126000e+01	N
atom  1.88217000e+00 7.33928000e+00 1.42449000e+01	Si
atom  1.44066000e+00 4.41070000e+00 1.51514000e+01	Si
atom  9.11884000e-01 3.73479000e+00 1.66818000e+01	N
atom  1.30680000e+00 3.75732000e+00 1.94213000e+01	N
atom  -1.23560000e-01 4.63250000e+00 1.95344000e+01	Si
atom  -8.03936000e-02 6.27642000e+00 1.91535000e+01	N
atom  1.17551000e+00 6.07925000e+00 1.51938000e+01	N
atom  1.47293000e+00 7.65774000e+00 1.73297000e+01	N
atom  5.65075000e-02 7.08952000e+00 1.61132000e+01	Si
atom  3.85265000e-01 7.88963000e+00 1.86703000e+01	Si
atom  4.99678000e-01 2.22799000e+00 2.39063000e+01	Si
atom  6.79136000e-01 3.08500000e+00 2.24123000e+01	N
atom  1.17115000e+00 9.52291000e-01 2.05697000e+01	N
atom  1.46740000e+00 2.79497000e+00 2.09035000e+01	Si
atom  8.07848000e-01 5.74706000e-01 2.34152000e+01	N
atom  -4.09533000e-01 1.15093000e+00 1.98870000e+01	Si
atom  1.33347000e+00 8.80092000e+00 2.15521000e+01	Si
atom  6.27055000e-01 9.95699000e+00 2.27182000e+01	N
atom  8.35753000e-01 7.25886000e+00 2.20940000e+01	N
atom  1.46506000e+00 7.19608000e+00 2.37336000e+01	Si
atom  8.28296000e-01 9.07183000e+00 1.98625000e+01	N
atom  -2.08295000e-02 2.72900000e+00 2.89175000e+01	N
atom  1.39358000e+00 3.18534000e+00 2.51771000e+01	N
atom  7.96412000e-01 4.78270000e+00 2.54236000e+01	Si
atom  1.04211000e+00 3.92841000e+00 2.83632000e+01	Si
atom  3.52411000e-01 1.08222000e+00 2.91969000e+01	Si
atom  4.98885000e-01 4.97864000e+00 2.71116000e+01	N
atom  1.37199000e+00 5.32474000e+00 2.93892000e+01	N
atom  2.90089000e-01 7.59499000e+00 2.49553000e+01	N
atom  2.10408000e-01 6.24674000e+00 2.83195000e+01	Si
atom  1.49833000e+00 9.91132000e+00 2.56526000e+01	N
atom  1.00086000e+00 7.61271000e+00 2.76538000e+01	N
atom  5.49919000e-01 8.61886000e+00 2.63340000e+01	Si
atom  1.96306000e+00 9.86656000e+00 2.40158000e+01	Si
atom  1.02489000e+00 3.00650000e+00 3.35857000e+01	Si
atom  2.71979000e-01 1.64246000e+00 3.29134000e+01	N
atom  -2.88050000e-01 3.80023000e+00 3.43617000e+01	N
atom  7.54957000e-01 8.80958000e+00 3.29723000e+01	N
atom  1.37422000e+00 8.20231000e+00 3.14286000e+01	Si
atom  1.52293000e+00 5.83843000e+00 3.27171000e+01	Si
atom  -2.24731000e-01 5.93617000e+00 3.23693000e+01	N
atom  -1.26326000e-01 8.01182000e+00 3.05815000e+01	N
atom  1.30654000e+00 8.39312000e+00 3.57407000e+01	N
atom  3.12150000e-01 4.32992000e+00 3.83325000e+01	N
atom  2.70253000e-01 2.29470000e+00 3.67275000e+01	N
atom  -3.18006000e-01 2.65796000e+00 3.83518000e+01	Si
atom  -2.84483000e-01 1.23429000e+00 3.93491000e+01	N
atom  3.54399000e-01 7.03684000e+00 3.76253000e+01	N
atom  1.77586000e-01 8.64771000e+00 3.70507000e+01	Si
atom  -2.93688000e-02 9.86917000e+00 3.81706000e+01	N
atom  1.05914000e+00 6.59695000e+00 3.59464000e+01	Si
atom  -4.76258000e-01 5.89907000e+00 3.86917000e+01	Si
atom  -4.88744000e-01 6.32581000e+00 3.51916000e+01	N
atom  7.15442000e-01 1.39648000e+01 3.50383000e+00	N
atom  1.41205000e+00 1.25851000e+01 2.67088000e+00	Si
atom  -1.20915000e-01 1.19589000e+01 2.18973000e+00	N
atom  -4.47728000e-01 1.22394000e+01 5.03201000e-01	Si
atom  7.84368000e-01 1.73992000e+01 3.41636000e+00	N
atom  1.70830000e+00 1.76957000e+01 5.59565000e-01	N
atom  -1.18667000e-01 2.03226000e+01 3.83691000e+00	Si
atom  -1.38186000e-01 1.37060000e+01 9.21550000e+00	Si
atom  1.57180000e+00 1.36431000e+01 7.51317000e+00	Si
atom  1.43761000e+00 1.30959000e+01 5.87401000e+00	N
atom  1.07778000e+00 1.14398000e+01 5.33717000e+00	Si
atom  1.07000000e+00 1.25296000e+01 8.80072000e+00	N
atom  9.82167000e-02 1.46397000e+01 7.71926000e+00	N
atom  2.75513000e-01 1.77424000e+01 6.38996000e+00	N
atom  -4.70235000e-02 1.87048000e+01 9.49830000e+00	Si
atom  5.93641000e-01 1.66992000e+01 5.02264000e+00	Si
atom  2.31495000e-01 1.99672000e+01 8.29062000e+00	N
atom  1.16705000e+00 1.75379000e+01 9.23909000e+00	N
atom  9.31687000e-01 1.93032000e+01 6.82439000e+00	Si
atom  7.27704000e-01 1.44868000e+01 1.29599000e+01	N
atom  1.33174000e+00 1.19649000e+01 1.14620000e+01	N
atom  7.24586000e-01 1.45902000e+01 1.04611000e+01	N
atom  -1.07109000e-01 1.10482000e+01 1.16765000e+01	Si
atom  1.58510000e+00 1.36831000e+01 1.17034000e+01	Si
atom  1.28746000e+00 1.62643000e+01 1.05588000e+01	Si
atom  2.41190000e-01 1.69044000e+01 1.17106000e+01	N
atom  2.59994000e-01 1.84469000e+01 1.25120000e+01	Si
atom  1.82043000e+00 1.86228000e+01 1.34321000e+01	N
atom  -2.43666000e-01 1.94593000e+01 1.52641000e+01	Si
atom  6.08635000e-01 1.14398000e+01 1.50219000e+01	N
atom  2.22130000e-01 1.13728000e+01 1.85202000e+01	N
atom  5.76853000e-01 1.29766000e+01 1.78827000e+01	Si
atom  2.88679000e-01 1.40169000e+01 1.92468000e+01	N
atom  1.44631000e+00 1.06418000e+01 1.94724000e+01	Si
atom  1.10775000e+00 1.67789000e+01 1.82057000e+01	N
atom  -2.94043000e-01 1.62845000e+01 1.54907000e+01	Si
atom  3.20713000e-01 1.96843000e+01 1.81723000e+01	N
atom  7.95890000e-02 1.80514000e+01 1.76645000e+01	Si
atom  4.53045000e-02 1.79252000e+01 1.59715000e+01	N
atom  1.23780000e+00 1.55250000e+01 1.56054000e+01	N
atom  5.81536000e-01 1.57962000e+01 1.95446000e+01	Si
atom  1.11189000e+00 1.16633000e+01 2.24595000e+01	Si
atom  4.70473000e-01 1.36414000e+01 2.40364000e+01	Si
atom  1.45025000e+00 1.18573000e+01 2.07950000e+01	N
atom  1.68624000e+00 1.37126000e+01 2.26770000e+01	N
atom  1.78841000e+00 1.35291000e+01 2.03254000e+01	Si
atom  -3.80955000e-01 1.21464000e+01 2.32079000e+01	N
atom  1.83765000e-01 1.90594000e+01 2.88295000e+01	Si
atom  6.63931000e-01 1.64906000e+01 2.27464000e+01	N
atom  9.30097000e-01 1.79239000e+01 2.36803000e+01	Si
atom  1.57708000e+00 1.76945000e+01 2.66992000e+01	Si
atom  -3.95320000e-02 1.78851000e+01 2.73756000e+01	N
atom  1.31300000e+00 1.37855000e+01 2.55313000e+01	N
atom  2.99522000e-01 1.49249000e+01 2.79042000e+01	N
atom  4.59723000e-01 1.19545000e+01 2.73539000e+01	N
atom  1.55881000e-01 1.35357000e+01 2.68008000e+01	Si
atom  1.66505000e+00 1.05991000e+01 2.94968000e+01	Si
atom  1.84282000e+00 1.52476000e+01 2.86076000e+01	Si
atom  -1.57848000e-02 1.03001000e+01 2.93716000e+01	N
atom  1.82829000e+00 1.72523000e+01 2.49992000e+01	N
atom  1.64780000e+00 1.84173000e+01 2.95734000e+01	N
atom  6.05514000e-01 1.28185000e+01 3.21029000e+01	N
atom  1.07618000e+00 1.34364000e+01 3.36834000e+01	Si
atom  1.31325000e+00 1.46523000e+01 3.01465000e+01	N
atom  1.39567000e+00 1.51790000e+01 3.36793000e+01	N
atom  -3.20663000e-01 1.31160000e+01 3.46876000e+01	N
atom  4.89209000e-01 1.74452000e+01 3.18640000e+01	N
atom  1.56025000e-01 1.60287000e+01 3.28617000e+01	Si
atom  1.24484000e+00 1.10556000e+01 3.80602000e+01	Si
atom  1.26737000e+00 1.21033000e+01 3.67053000e+01	N
atom  5.33199000e-01 1.45297000e+01 3.89555000e+01	Si
atom  1.05810000e+00 1.20205000e+01 3.95046000e+01	N
atom  -2.71649000e-01 1.28324000e+01 3.63470000e+01	Si
atom  1.03150000e+00 1.85167000e+01 3.66394000e+01	Si
atom  -8.73571000e-02 1.61160000e+01 3.91561000e+01	N
atom  1.64655000e-01 1.77128000e+01 3.96773000e+01	Si
atom  4.28376000e-01 1.87438000e+01 3.82732000e+01	N
atom  9.86091000e-01 1.69323000e+01 3.58681000e+01	N
atom  -4.59087000e-01 1.89486000e+01 3.58347000e+01	N
atom  3.87258000e-01 2.42676000e+01 3.16991000e+00	N
atom  1.50447000e+00 2.46889000e+01 1.93304000e+00	Si
atom  1.30129000e+00 2.16743000e+01 1.46078000e+00	Si
atom  -3.11125000e-01 2.23320000e+01 1.48999000e+00	N
atom  1.38279000e+00 2.05757000e+01 2.88157000e+00	N
atom  2.69622000e-02 2.52196000e+01 4.64056000e+00	Si
atom  7.28776000e-01 2.58425000e+01 8.86728000e-01	N
atom  7.97797000e-01 2.83023000e+01 4.10029000e+00	Si
atom  1.29240000e+00 2.83512000e+01 2.46845000e+00	N
atom  9.23806000e-01 2.66346000e+01 4.51125000e+00	N
atom  1.98522000e+00 2.71793000e+01 1.49782000e+00	Si
atom  1.00112000e-01 2.81900000e+01 -1.75906000e-01	N
atom  -8.52602000e-02 2.93658000e+01 7.19521000e+00	N
atom  1.86190000e+00 2.24180000e+01 5.42467000e+00	N
atom  -8.77719000e-02 2.44954000e+01 9.04639000e+00	N
atom  3.85968000e-01 2.44216000e+01 6.09061000e+00	N
atom  1.33990000e-01 2.21584000e+01 5.65012000e+00	Si
atom  1.74840000e+00 2.42714000e+01 9.17101000e+00	Si
atom  1.63875000e+00 2.92432000e+01 7.03579000e+00	Si
atom  1.89186000e+00 2.59812000e+01 8.83239000e+00	N
atom  1.84904000e+00 2.91148000e+01 5.29529000e+00	N
atom  1.89972000e-01 2.61568000e+01 9.20334000e+00	Si
atom  5.71083000e-01 2.02970000e+01 5.48579000e+00	N
atom  1.40943000e+00 2.12601000e+01 1.21267000e+01	N
atom  1.68277000e+00 2.42285000e+01 1.41438000e+01	Si
atom  -2.29309000e-01 2.11828000e+01 1.14925000e+01	Si
atom  7.98653000e-01 2.53931000e+01 1.31801000e+01	N
atom  2.34829000e-01 2.66592000e+01 1.43963000e+01	Si
atom  1.58211000e+00 2.76963000e+01 1.42675000e+01	N
atom  -1.20313000e-01 2.95672000e+01 1.24507000e+01	N
atom  4.32188000e-01 3.01868000e+01 1.49502000e+01	N
atom  1.86205000e+00 2.94542000e+01 1.42782000e+01	Si
atom  -2.81705000e-01 2.93599000e+01 9.94628000e+00	N
atom  6.58546000e-01 2.32832000e+01 1.50418000e+01	N
atom  1.05138000e+00 2.05888000e+01 1.50032000e+01	N
atom  1.08545000e+00 2.09822000e+01 1.90423000e+01	Si
atom  9.70582000e-01 2.28300000e+01 1.95350000e+01	N
atom  6.97002000e-01 2.19043000e+01 1.60896000e+01	Si
atom  1.70737000e+00 2.17899000e+01 1.74522000e+01	N
atom  -3.06947000e-01 2.50553000e+01 1.83222000e+01	N
atom  7.40768000e-02 2.56986000e+01 1.57617000e+01	N
atom  -2.78469000e-01 2.82515000e+01 1.84390000e+01	Si
atom  9.14295000e-01 2.57368000e+01 1.73512000e+01	Si
atom  1.15590000e+00 2.73714000e+01 1.78255000e+01	N
atom  -4.03899000e-01 2.33743000e+01 1.85601000e+01	Si
atom  3.37735000e-01 2.23139000e+01 2.11742000e+01	Si
atom  4.24294000e-01 2.47821000e+01 2.27881000e+01	Si
atom  -4.54369000e-02 2.42533000e+01 2.43613000e+01	N
atom  1.41982000e+00 2.07697000e+01 2.33705000e+01	Si
atom  1.67482000e+00 2.20677000e+01 2.22597000e+01	N
atom  -3.69542000e-01 2.09386000e+01 2.02668000e+01	N
atom  1.79441000e-01 2.82682000e+01 2.01227000e+01	N
atom  1.31877000e+00 2.95045000e+01 2.04204000e+01	Si
atom  7.71586000e-01 2.90480000e+01 2.38026000e+01	N
atom  8.42461000e-02 2.64559000e+01 2.24282000e+01	N
atom  6.94893000e-02 2.11756000e+01 2.64023000e+01	Si
atom  5.96980000e-01 2.41098000e+01 2.59074000e+01	Si
atom  8.91335000e-02 2.28107000e+01 2.69649000e+01	N
atom  5.19160000e-01 2.23004000e+01 2.86190000e+01	Si
atom  9.47409000e-01 2.40149000e+01 2.90613000e+01	N
atom  1.11054000e+00 2.07335000e+01 2.51443000e+01	N
atom  4.93898000e-01 2.05055000e+01 2.79892000e+01	N
atom  -8.00158000e-02 2.78557000e+01 2.90629000e+01	Si
atom  1.77939000e+00 2.68332000e+01 2.52009000e+01	N
atom  3.75223000e-01 2.70008000e+01 2.62194000e+01	Si
atom  8.84613000e-01 2.78864000e+01 2.76230000e+01	N
atom  -2.39098000e-03 2.54459000e+01 2.68323000e+01	N
atom  -3.48210000e-01 2.06625000e+01 2.28490000e+01	N
atom  -5.28869000e-01 2.37195000e+01 2.17658000e+01	N
atom  -2.86954000e-01 2.77625000e+01 2.34226000e+01	Si
atom  7.77657000e-01 2.21480000e+01 3.21675000e+01	N
atom  1.19106000e+00 2.06374000e+01 3.44874000e+01	N
atom  8.10236000e-01 2.05288000e+01 3.28379000e+01	Si
atom  5.40126000e-01 2.75714000e+01 3.19389000e+01	Si
atom  6.57335000e-01 2.87302000e+01 3.31192000e+01	N
atom  1.10661000e+00 2.83709000e+01 3.04488000e+01	N
atom  1.66988000e+00 2.63775000e+01 3.22861000e+01	N
atom  1.16909000e+00 3.01140000e+01 2.99098000e+01	Si
atom  1.32075000e+00 2.98715000e+01 3.82647000e+01	N
atom  3.36259000e-01 2.04430000e+01 3.85037000e+01	Si
atom  2.53978000e-01 2.13484000e+01 3.70088000e+01	N
atom  5.60967000e-01 2.38761000e+01 3.60059000e+01	N
atom  -2.29815000e-01 2.06392000e+01 3.55511000e+01	Si
atom  -1.28835000e-01 2.35062000e+01 3.88182000e+01	N
atom  5.61145000e-01 2.50545000e+01 3.90732000e+01	Si
atom  1.48955000e+00 2.08885000e+01 3.97035000e+01	N
atom  1.61089000e+00 2.82319000e+01 3.87337000e+01	Si
atom  1.85855000e+00 2.96212000e+01 3.54675000e+01	N
atom  8.81337000e-01 2.83073000e+01 3.48335000e+01	Si
atom  8.78098000e-01 2.65341000e+01 3.48480000e+01	N
atom  1.19264000e-02 2.55605000e+01 3.60250000e+01	Si
atom  1.19304000e-01 3.00834000e+01 3.69086000e+01	Si
atom  8.05371000e-01 2.59303000e+01 3.75804000e+01	N
atom  1.35296000e+00 3.19344000e+01 2.56707000e+00	N
atom  6.36554000e-01 3.21591000e+01 1.01428000e+00	Si
atom  1.35288000e-01 3.21795000e+01 3.89745000e+00	Si
atom  -3.21128000e-01 3.38580000e+01 3.81675000e+00	N
atom  1.03816000e+00 3.61192000e+01 1.35199000e+00	Si
atom  9.36443000e-01 3.78415000e+01 3.54934000e+00	N
atom  1.45628000e+00 3.77972000e+01 9.30456000e-01	N
atom  6.88706000e-01 3.87498000e+01 2.06645000e+00	Si
atom  8.24559000e-01 3.40313000e+01 7.89034000e+00	Si
atom  4.44458000e-01 3.14629000e+01 5.42897000e+00	N
atom  6.05119000e-01 3.25142000e+01 8.78815000e+00	N
atom  2.20499000e-02 3.49776000e+01 5.12470000e+00	Si
atom  1.85556000e+00 3.19853000e+01 6.29470000e+00	Si
atom  -1.76682000e-01 3.83078000e+01 8.36092000e+00	N
atom  1.16956000e+00 3.56797000e+01 8.35462000e+00	N
atom  1.24391000e+00 3.90210000e+01 7.68822000e+00	Si
atom  1.55140000e-01 3.68290000e+01 9.16695000e+00	Si
atom  8.85099000e-01 3.90408000e+01 5.95873000e+00	N
atom  1.68813000e+00 3.52644000e+01 5.02182000e+00	N
atom  -4.39505000e-01 3.08954000e+01 8.02465000e-01	N
atom  8.31018000e-01 3.51076000e+01 -3.39191000e-02	N
atom  1.64193000e+00 3.45331000e+01 1.36822000e+01	N
atom  2.50499000e-01 3.05902000e+01 1.10517000e+01	Si
atom  1.93190000e+00 3.09406000e+01 1.06545000e+01	N
atom  9.60270000e-01 3.92200000e+01 1.22498000e+01	N
atom  1.39174000e+00 3.76125000e+01 1.17899000e+01	Si
atom  3.16854000e-01 3.56281000e+01 1.38626000e+01	Si
atom  1.50443000e-01 3.67052000e+01 1.25676000e+01	N
atom  1.55563000e+00 3.72136000e+01 1.01634000e+01	N
atom  1.67525000e+00 3.35545000e+01 1.51250000e+01	Si
atom  9.59652000e-01 3.34998000e+01 1.89004000e+01	N
atom  1.38398000e+00 3.14684000e+01 1.73263000e+01	N
atom  1.75594000e-02 3.32930000e+01 1.59929000e+01	N
atom  8.81770000e-03 3.08146000e+01 1.65501000e+01	Si
atom  1.62316000e+00 3.18448000e+01 1.90343000e+01	Si
atom  -3.07539000e-01 3.35354000e+01 1.77211000e+01	Si
atom  1.05534000e+00 3.87505000e+01 1.68410000e+01	N
atom  9.72260000e-01 3.83859000e+01 1.52192000e+01	Si
atom  1.11976000e+00 3.66724000e+01 1.50712000e+01	N
atom  -3.47369000e-01 3.77455000e+01 1.89305000e+01	N
atom  -3.98270000e-01 3.91109000e+01 1.76575000e+01	Si
atom  1.76398000e+00 3.61759000e+01 1.98741000e+01	N
atom  5.01178000e-01 3.17973000e+01 2.32932000e+01	N
atom  1.90681000e-01 3.23018000e+01 2.16703000e+01	Si
atom  1.19483000e+00 3.37274000e+01 2.14872000e+01	N
atom  6.51775000e-01 3.11361000e+01 2.04492000e+01	N
atom  7.89650000e-01 3.47480000e+01 2.00989000e+01	Si
atom  1.69657000e+00 3.25635000e+01 2.41968000e+01	Si
atom  -1.73829000e-01 3.04822000e+01 2.41950000e+01	Si
atom  8.87216000e-01 3.69259000e+01 2.29685000e+01	Si
atom  6.08342000e-01 3.82096000e+01 2.16465000e+01	N
atom  8.60330000e-01 3.77382000e+01 2.45074000e+01	N
atom  1.35940000e+00 3.97810000e+01 2.19552000e+01	Si
atom  -3.20470000e-02 3.91761000e+01 2.42864000e+01	Si
atom  1.07067000e+00 3.77247000e+01 1.99326000e+01	Si
atom  9.57650000e-01 3.69211000e+01 2.96310000e+01	N
atom  9.71058000e-01 3.40647000e+01 2.48637000e+01	N
atom  1.55241000e+00 3.04358000e+01 2.82067000e+01	N
atom  8.58874000e-01 3.15815000e+01 2.70326000e+01	Si
atom  7.57699000e-01 3.32702000e+01 2.75087000e+01	N
atom  1.60943000e+00 3.43807000e+01 2.65161000e+01	Si
atom  -3.22200000e-01 3.10022000e+01 2.58702000e+01	N
atom  -3.21037000e-01 3.32101000e+01 2.88821000e+01	Si
atom  1.11592000e+00 3.59631000e+01 2.70384000e+01	N
atom  -6.64111000e-02 3.62621000e+01 2.83102000e+01	Si
atom  -2.06646000e-01 3.89685000e+01 2.71685000e+01	Si
atom  1.44692000e+00 3.88103000e+01 2.69488000e+01	N
atom  1.60072000e+00 3.72836000e+01 2.59930000e+01	Si
atom  5.51551000e-01 3.13878000e+01 3.37673000e+01	N
atom  1.05496000e+00 3.31383000e+01 3.01594000e+01	N
atom  -7.30774000e-02 3.07856000e+01 3.09795000e+01	N
atom  -1.25438000e-01 3.25640000e+01 3.12891000e+01	Si
atom  -1.42422000e-01 3.52683000e+01 3.28039000e+01	Si
atom  1.34006000e+00 3.58400000e+01 3.21789000e+01	N
atom  1.91724000e-01 3.84082000e+01 3.24636000e+01	N
atom  4.84150000e-01 3.70824000e+01 3.12978000e+01	Si
atom  7.56280000e-01 4.00600000e+01 3.21028000e+01	Si
atom  -1.44644000e-01 4.02529000e+01 3.07043000e+01	N
atom  4.38731000e-01 3.33555000e+01 3.68907000e+01	Si
atom  -2.45549000e-01 3.38369000e+01 3.54310000e+01	N
atom  1.70900000e+00 3.13087000e+01 3.50371000e+01	Si
atom  6.50643000e-01 3.16791000e+01 3.64792000e+01	N
atom  1.52452000e+00 3.25421000e+01 3.94525000e+01	N
atom  6.04838000e-01 3.90026000e+01 3.77098000e+01	N
atom  -1.45137000e-01 3.01859000e+01 3.26278000e+01	Si
atom  1.77906000e-01 3.78584000e+01 3.64036000e+01	Si
atom  1.91290000e+00 3.75920000e+01 3.62091000e+01	N
atom  -1.79366000e-01 3.35814000e+01 3.26642000e+01	N
atom  3.80799000e+00 3.00010000e+00 3.82629000e+00	Si
atom  2.04938000e+00 2.93512000e+00 3.62936000e+00	N
atom  2.05662000e+00 5.12650000e+00 2.17783000e+00	N
atom  3.28449000e+00 5.83918000e+00 3.29127000e+00	Si
atom  2.34034000e+00 7.71629000e+00 9.51103000e-01	N
atom  2.52169000e+00 9.95198000e+00 3.47818000e+00	Si
atom  3.90393000e+00 9.49146000e+00 4.35256000e+00	N
atom  2.20452000e+00 6.27559000e+00 4.51439000e+00	N
atom  4.11226000e+00 7.84067000e+00 1.20048000e+00	Si
atom  4.17080000e+00 7.26178000e+00 2.83706000e+00	N
atom  3.03143000e+00 1.03458000e+00 7.89117000e+00	Si
atom  3.48563000e+00 4.89694000e+00 6.61538000e+00	N
atom  3.06304000e+00 2.67149000e+00 7.47508000e+00	N
atom  2.54856000e+00 4.98613000e+00 9.17734000e+00	N
atom  2.20005000e+00 4.11690000e+00 7.73637000e+00	Si
atom  4.19268000e+00 4.30843000e-01 9.04904000e+00	N
atom  2.22817000e+00 6.04959000e+00 6.24118000e+00	Si
atom  2.65313000e+00 6.75020000e+00 9.07688000e+00	Si
atom  2.35646000e+00 7.41442000e+00 7.31412000e+00	N
atom  3.98948000e+00 9.41603000e+00 9.05872000e+00	Si
atom  2.43110000e+00 1.00367000e+01 9.41294000e+00	N
atom  4.20952000e+00 7.67620000e+00 9.08363000e+00	N
atom  1.87086000e+00 1.00580000e+01 6.04811000e+00	N
atom  2.37028000e+00 1.02954000e+01 1.75869000e+00	N
atom  3.56918000e+00 1.02806000e+01 5.99211000e+00	Si
atom  2.96055000e+00 4.14987000e+00 1.43383000e+01	N
atom  3.66564000e+00 2.61886000e+00 1.41192000e+01	Si
atom  2.73697000e+00 4.18865000e+00 1.15892000e+01	N
atom  2.18344000e+00 1.87650000e+00 1.33110000e+01	N
atom  3.06403000e+00 5.18952000e+00 1.29573000e+01	Si
atom  4.06904000e+00 4.13201000e+00 1.05047000e+01	Si
atom  1.92073000e+00 6.47841000e+00 1.27576000e+01	N
atom  3.49747000e+00 2.65083000e+00 1.81208000e+01	N
atom  3.00379000e+00 5.17704000e+00 1.72756000e+01	N
atom  3.89546000e+00 1.64734000e+00 1.55129000e+01	N
atom  2.15051000e+00 3.72108000e+00 1.78978000e+01	Si
atom  2.95111000e+00 6.90112000e+00 1.68708000e+01	Si
atom  3.29334000e+00 9.29012000e+00 1.49212000e+01	Si
atom  3.33734000e+00 7.60092000e+00 1.52866000e+01	N
atom  4.38265000e+00 2.74083000e+00 1.96845000e+01	Si
atom  1.95129000e+00 9.08304000e+00 1.37906000e+01	N
atom  3.16461000e+00 2.54650000e+00 2.10625000e+01	N
atom  3.53595000e+00 4.93220000e+00 2.43816000e+01	Si
atom  2.67757000e+00 8.18755000e+00 2.78897000e+01	Si
atom  3.04630000e+00 9.06175000e+00 2.12501000e+01	N
atom  2.72597000e+00 8.37180000e+00 2.36058000e+01	N
atom  4.07361000e+00 8.63865000e+00 2.25359000e+01	Si
atom  4.04422000e+00 9.79301000e+00 2.00463000e+01	Si
atom  2.01814000e+00 5.72534000e+00 2.44875000e+01	N
atom  2.75259000e+00 2.81008000e+00 2.62161000e+01	Si
atom  3.80464000e+00 2.98889000e+00 2.90084000e+01	Si
atom  4.01549000e+00 3.85376000e+00 2.56094000e+01	N
atom  2.46974000e+00 3.16309000e+00 2.79061000e+01	N
atom  3.04454000e+00 1.06889000e+00 2.60489000e+01	N
atom  1.99423000e+00 5.22483000e-01 2.89356000e+01	N
atom  2.36439000e+00 9.86748000e+00 2.80916000e+01	N
atom  3.56296000e+00 7.33288000e+00 2.91284000e+01	N
atom  3.52271000e+00 7.66381000e+00 2.65161000e+01	N
atom  3.33547000e+00 3.63633000e+00 3.36744000e+01	Si
atom  3.87090000e+00 4.47100000e+00 3.00220000e+01	N
atom  2.39724000e+00 5.58897000e+00 3.65431000e+01	N
atom  1.95192000e+00 4.19663000e+00 3.27011000e+01	N
atom  4.30009000e+00 4.76441000e+00 3.45459000e+01	N
atom  2.30378000e+00 6.74388000e+00 3.14533000e+01	N
atom  2.85526000e+00 5.94865000e+00 3.00722000e+01	Si
atom  3.68586000e+00 9.67536000e+00 3.19419000e+01	Si
atom  3.40049000e+00 9.02719000e+00 3.35670000e+01	N
atom  2.24361000e+00 9.62976000e+00 3.09551000e+01	N
atom  2.04170000e+00 6.54919000e+00 3.41728000e+01	N
atom  2.28621000e+00 2.66727000e+00 3.46737000e+01	N
atom  2.76890000e+00 5.09285000e+00 3.93841000e+01	N
atom  2.82854000e+00 3.03638000e+00 3.74985000e+01	N
atom  2.65844000e+00 4.87649000e-01 3.63651000e+01	N
atom  1.97605000e+00 4.50107000e+00 3.78587000e+01	Si
atom  2.75554000e+00 1.02835000e+01 3.78343000e+01	N
atom  3.49206000e+00 6.09586000e+00 3.52303000e+01	Si
atom  1.91994000e+00 8.33429000e+00 3.41519000e+01	Si
atom  1.99357000e+00 2.11590000e+00 3.63077000e+01	Si
atom  2.58962000e+00 1.31992000e+01 1.61492000e+00	N
atom  3.65435000e+00 1.39643000e+01 3.99836000e+00	N
atom  3.76805000e+00 1.43921000e+01 2.18676000e+00	Si
atom  2.19339000e+00 1.16009000e+01 3.94927000e+00	N
atom  3.91504000e+00 1.21857000e+01 4.02846000e+00	Si
atom  3.88895000e+00 1.09212000e+01 1.24583000e+00	Si
atom  2.04528000e+00 1.41976000e+01 4.67336000e+00	Si
atom  2.02265000e+00 1.57515000e+01 5.46877000e+00	N
atom  2.53591000e+00 1.28575000e+01 -1.19043000e-01	Si
atom  3.68714000e+00 2.03313000e+01 4.35178000e+00	N
atom  3.06466000e+00 2.00066000e+01 2.70869000e+00	Si
atom  2.68950000e+00 1.57076000e+01 2.33606000e+00	N
atom  3.36191000e+00 1.82923000e+01 2.66993000e+00	N
atom  2.05032000e+00 1.72954000e+01 2.19424000e+00	Si
atom  3.07691000e+00 1.43560000e+01 7.69560000e+00	N
atom  3.74507000e+00 1.24519000e+01 9.79034000e+00	N
atom  3.57709000e+00 1.70153000e+01 7.79942000e+00	N
atom  2.93725000e+00 1.77251000e+01 9.17279000e+00	Si
atom  2.53574000e+00 1.98151000e+01 6.85086000e+00	N
atom  3.99709000e+00 1.98983000e+01 7.78428000e+00	Si
atom  3.20444000e+00 1.57697000e+01 6.66354000e+00	Si
atom  3.70153000e+00 1.92155000e+01 9.43193000e+00	N
atom  2.16231000e+00 1.17115000e+01 9.88627000e+00	Si
atom  3.26561000e+00 1.40974000e+01 1.19003000e+01	N
atom  2.72491000e+00 1.31854000e+01 1.42610000e+01	N
atom  3.99995000e+00 1.31518000e+01 1.30762000e+01	Si
atom  1.91650000e+00 1.47417000e+01 1.41989000e+01	Si
atom  1.97130000e+00 2.03862000e+01 1.36001000e+01	Si
atom  2.21954000e+00 1.62537000e+01 1.69476000e+01	Si
atom  3.20273000e+00 1.59346000e+01 1.40102000e+01	N
atom  2.94253000e+00 1.64640000e+01 1.04998000e+01	N
atom  3.00485000e+00 1.76223000e+01 1.44436000e+01	Si
atom  3.39256000e+00 1.36983000e+01 1.77260000e+01	Si
atom  3.90822000e+00 1.08014000e+01 1.73216000e+01	Si
atom  3.26218000e+00 1.33380000e+01 1.94322000e+01	N
atom  2.99912000e+00 1.06255000e+01 1.59269000e+01	N
atom  2.22320000e+00 1.21428000e+01 1.54774000e+01	Si
atom  3.03384000e+00 1.03025000e+01 1.87705000e+01	N
atom  2.96969000e+00 1.76272000e+01 1.61659000e+01	N
atom  4.21396000e+00 1.99639000e+01 1.90678000e+01	Si
atom  4.02490000e+00 2.01755000e+01 1.72334000e+01	N
atom  3.56575000e+00 1.54316000e+01 1.76759000e+01	N
atom  2.02532000e+00 1.30494000e+01 1.69515000e+01	N
atom  3.22535000e+00 1.29515000e+01 2.31500000e+01	Si
atom  2.60374000e+00 1.13846000e+01 2.33925000e+01	N
atom  4.13557000e+00 1.32160000e+01 2.46512000e+01	N
atom  4.24093000e+00 1.35416000e+01 2.18669000e+01	N
atom  3.46745000e+00 1.59221000e+01 2.29508000e+01	N
atom  3.74413000e+00 1.93738000e+01 2.32450000e+01	Si
atom  3.39891000e+00 1.66386000e+01 2.46001000e+01	Si
atom  3.78105000e+00 1.98456000e+01 2.90795000e+01	N
atom  3.22189000e+00 1.43619000e+01 2.80616000e+01	N
atom  3.15865000e+00 1.37447000e+01 2.60536000e+01	Si
atom  3.63046000e+00 1.27560000e+01 2.85405000e+01	Si
atom  3.23067000e+00 1.21790000e+01 2.69128000e+01	N
atom  1.85523000e+00 1.10090000e+01 2.68844000e+01	Si
atom  2.36925000e+00 1.21468000e+01 2.96396000e+01	N
atom  4.14074000e+00 1.58807000e+01 2.76832000e+01	Si
atom  2.54393000e+00 1.90755000e+01 2.70510000e+01	N
atom  2.44149000e+00 1.66900000e+01 2.78328000e+01	N
atom  3.12844000e+00 1.82125000e+01 2.85036000e+01	Si
atom  3.83086000e+00 1.54206000e+01 2.58785000e+01	N
atom  1.90971000e+00 1.53016000e+01 2.05844000e+01	N
atom  1.93376000e+00 1.91762000e+01 2.29719000e+01	N
atom  1.95368000e+00 1.54458000e+01 2.22712000e+01	Si
atom  3.24214000e+00 1.36580000e+01 3.19122000e+01	N
atom  2.48794000e+00 1.26522000e+01 3.43073000e+01	N
atom  3.77018000e+00 1.25052000e+01 3.31452000e+01	Si
atom  3.98268000e+00 1.52224000e+01 3.18646000e+01	Si
atom  1.86226000e+00 1.31905000e+01 3.09221000e+01	Si
atom  3.70753000e+00 1.79039000e+01 3.65755000e+01	Si
atom  3.39331000e+00 1.68703000e+01 3.13769000e+01	N
atom  2.16779000e+00 1.94696000e+01 3.21033000e+01	N
atom  3.94932000e+00 1.99448000e+01 3.42703000e+01	N
atom  3.66875000e+00 2.02151000e+01 3.25829000e+01	Si
atom  2.04634000e+00 1.79863000e+01 3.12362000e+01	Si
atom  4.27972000e+00 1.11216000e+01 3.79716000e+01	Si
atom  2.21405000e+00 1.43494000e+01 3.89418000e+01	N
atom  2.49822000e+00 1.46013000e+01 3.62534000e+01	N
atom  2.65276000e+00 1.28598000e+01 3.60345000e+01	Si
atom  4.09104000e+00 1.23699000e+01 3.68065000e+01	N
atom  3.23424000e+00 1.51123000e+01 3.77905000e+01	Si
atom  3.93455000e+00 1.18514000e+01 3.96082000e+01	N
atom  3.57564000e+00 1.68306000e+01 3.50805000e+01	N
atom  2.56917000e+00 1.92589000e+01 3.63968000e+01	N
atom  2.10299000e+00 1.58216000e+01 3.51033000e+01	Si
atom  3.16717000e+00 1.68844000e+01 3.78611000e+01	N
atom  3.89007000e+00 1.90806000e+01 3.92620000e+01	N
atom  3.15541000e+00 1.75459000e+01 3.94798000e+01	Si
atom  3.54253000e+00 2.09501000e+01 1.39924000e+00	N
atom  2.26128000e+00 2.32876000e+01 1.28172000e+00	N
atom  2.61906000e+00 2.59492000e+01 2.54720000e+00	N
atom  2.58869000e+00 2.62889000e+01 4.21697000e+00	Si
atom  3.68471000e+00 2.75992000e+01 4.27955000e+00	N
atom  2.79625000e+00 2.80923000e+01 2.79814000e-01	N
atom  4.03050000e+00 2.93066000e+01 2.93333000e-01	Si
atom  3.52120000e+00 2.92082000e+01 4.81904000e+00	Si
atom  2.32463000e+00 2.07247000e+01 5.34654000e+00	Si
atom  2.99492000e+00 2.50676000e+01 5.36858000e+00	N
atom  4.14854000e+00 2.30286000e+01 7.86890000e+00	Si
atom  2.47973000e+00 2.35140000e+01 7.80244000e+00	N
atom  3.32411000e+00 2.68396000e+01 8.42891000e+00	Si
atom  2.89808000e+00 2.84213000e+01 7.86842000e+00	N
atom  3.88952000e+00 2.98922000e+01 7.96555000e+00	Si
atom  4.60174000e+00 2.60347000e+01 7.45495000e+00	N
atom  2.05548000e+00 2.39358000e+01 6.17482000e+00	Si
atom  4.34937000e+00 2.99613000e+01 6.14478000e+00	N
atom  2.86016000e+00 2.34175000e+01 1.30722000e+01	N
atom  3.60847000e+00 2.08472000e+01 1.37669000e+01	N
atom  2.68795000e+00 2.22612000e+01 1.16047000e+01	Si
atom  3.40963000e+00 2.46677000e+01 1.18841000e+01	Si
atom  2.44131000e+00 2.37759000e+01 1.07214000e+01	N
atom  4.10542000e+00 2.24879000e+01 1.41797000e+01	Si
atom  4.17318000e+00 2.15739000e+01 1.09255000e+01	N
atom  4.33980000e+00 2.67259000e+01 9.85920000e+00	N
atom  3.38373000e+00 2.63455000e+01 1.24165000e+01	N
atom  2.97450000e+00 2.67009000e+01 1.41025000e+01	Si
atom  2.78014000e+00 3.01559000e+01 1.30322000e+01	N
atom  2.67866000e+00 2.53321000e+01 1.50330000e+01	N
atom  2.27844000e+00 2.46773000e+01 1.76116000e+01	N
atom  3.45072000e+00 2.44333000e+01 1.62873000e+01	Si
atom  2.48402000e+00 2.34896000e+01 1.88972000e+01	Si
atom  3.65107000e+00 2.27421000e+01 1.58182000e+01	N
atom  3.40375000e+00 2.17421000e+01 1.71838000e+01	Si
atom  3.99977000e+00 2.25878000e+01 1.85682000e+01	N
atom  2.66240000e+00 2.04652000e+01 1.96051000e+01	N
atom  4.11681000e+00 2.78311000e+01 1.75518000e+01	N
atom  2.98892000e+00 2.96324000e+01 1.57010000e+01	N
atom  2.61711000e+00 2.78858000e+01 1.86187000e+01	Si
atom  2.28971000e+00 2.96014000e+01 1.90303000e+01	N
atom  4.24965000e+00 2.85230000e+01 1.59496000e+01	Si
atom  4.36710000e+00 2.74120000e+01 1.13628000e+01	Si
atom  2.75978000e+00 2.33643000e+01 2.19203000e+01	Si