lattice_vector  3.99450213e+01 0.00000000e+00 0.00000000e+00
lattice_vector  2.44592713e-15 3.99450213e+01 0.00000000e+00
lattice_vector  2.44592713e-15 2.44592713e-15 3.99450213e+01
atom  2.55958000e+00 8.15327000e-01 2.98610000e+00	Si
atom  7.08133000e-02 8.96537000e-01 7.27730000e-01	N
atom  3.31173000e+00 2.29725000e+00 3.27992000e+00	N
atom  1.64976000e+00 9.65639000e-01 9.83995000e-02	Si
atom  8.98031000e-01 8.00295000e-01 3.43514000e+00	N
atom  -4.66941000e-01 1.06278000e+00 2.39042000e+00	Si
atom  6.19560000e+00 1.66117000e+00 1.34134000e+00	Si
atom  7.69034000e+00 1.21188000e+00 3.86205000e+00	Si
atom  7.60838000e+00 9.02310000e-01 2.13441000e+00	N
atom  8.76974000e+00 4.50417000e-01 9.88611000e-01	Si
atom  9.14330000e+00 4.39120000e-01 4.43455000e+00	N
atom  6.86911000e+00 2.49977000e+00 -6.97728000e-02	N
atom  -3.70587000e-02 6.73624000e-01 9.08499000e+00	N
atom  2.28885000e-01 1.36909000e+00 6.08182000e+00	N
atom  1.03490000e+00 2.13414000e+00 8.78038000e+00	Si
atom  4.13028000e+00 1.30185000e+00 9.03557000e+00	Si
atom  2.48347000e+00 1.03569000e+00 8.62918000e+00	N
atom  7.55955000e+00 3.55826000e-01 9.74223000e+00	N
atom  6.25496000e+00 9.80624000e-01 4.90304000e+00	N
atom  9.15244000e+00 2.11048000e+00 7.90382000e+00	Si
atom  8.34523000e+00 7.52001000e-01 7.08170000e+00	N
atom  6.01950000e+00 2.04598000e+00 6.23724000e+00	Si
atom  5.61891000e+00 1.33962000e+00 7.85391000e+00	N
atom  4.78544000e-01 1.47430000e+00 1.39143000e+01	N
atom  4.06488000e+00 2.48779000e+00 1.02440000e+01	N
atom  2.74757000e+00 1.60216000e+00 1.46880000e+01	N
atom  6.10066000e+00 1.18313000e+00 1.22643000e+01	N
atom  9.20664000e+00 2.52492000e+00 1.47254000e+01	Si
atom  4.38017000e+00 2.05091000e+00 1.49606000e+01	Si
atom  3.72112000e+00 2.54675000e+00 1.92126000e+01	N
atom  5.43616000e+00 7.07202000e-01 1.49193000e+01	N
atom  4.97466000e+00 1.98511000e+00 1.80298000e+01	Si
atom  6.61612000e+00 2.66071000e+00 1.77842000e+01	N
atom  9.50811000e+00 8.51457000e-01 1.49763000e+01	N
atom  2.29512000e+00 9.16254000e-01 2.27043000e+01	N
atom  4.37137000e+00 1.54412000e+00 2.05109000e+01	Si
atom  1.37269000e+00 6.25888000e-01 2.42191000e+01	Si
atom  4.21312000e+00 2.62001000e+00 2.18182000e+01	N
atom  2.72614000e+00 2.61875000e+00 2.26324000e+01	Si
atom  6.57954000e+00 2.45000000e+00 2.29997000e+01	N
atom  7.82068000e+00 1.60900000e+00 2.20965000e+01	Si
atom  5.70711000e+00 1.60772000e+00 2.42429000e+01	Si
atom  8.28162000e+00 2.02478000e+00 2.04501000e+01	N
atom  5.93447000e+00 1.48923000e+00 1.98436000e+01	N
atom  9.31827000e+00 1.95233000e+00 2.29023000e+01	N
atom  9.61175000e+00 2.48842000e+00 2.45008000e+01	Si
atom  7.21466000e-01 2.55644000e+00 2.66375000e+01	Si
atom  3.37608000e-01 1.37190000e+00 2.53801000e+01	N
atom  -4.72118000e-01 2.41793000e+00 2.78416000e+01	N
atom  2.37454000e+00 2.58258000e+00 2.71913000e+01	N
atom  8.14553000e+00 7.77755000e-01 2.66694000e+01	Si
atom  4.84477000e+00 2.34462000e+00 2.55135000e+01	N
atom  6.72034000e+00 8.52930000e-01 2.54956000e+01	N
atom  7.47266000e+00 2.24032000e+00 2.73803000e+01	N
atom  5.86724000e+00 1.79729000e+00 2.68089000e+01	Si
atom  8.20085000e+00 1.91585000e+00 2.89720000e+01	Si
atom  5.30410000e+00 4.69825000e-01 2.77543000e+01	N
atom  9.17319000e+00 7.20487000e-01 2.82264000e+01	N
atom  5.31768000e+00 1.45255000e+00 2.92087000e+01	Si
atom  9.40992000e+00 1.01960000e+00 2.54002000e+01	N
atom  3.29161000e+00 1.63616000e+00 3.13650000e+01	Si
atom  7.93443000e-01 1.06629000e+00 3.27953000e+01	Si
atom  3.37317000e-02 1.82711000e+00 3.13893000e+01	N
atom  7.66342000e-01 2.30235000e+00 3.40374000e+01	N
atom  2.46540000e+00 6.78951000e-01 3.25266000e+01	N
atom  4.27342000e+00 6.23501000e-01 3.03569000e+01	N
atom  2.37493000e+00 2.44791000e+00 3.00547000e+01	N
atom  7.47220000e+00 1.28705000e+00 3.15810000e+01	Si
atom  9.22007000e+00 1.25363000e+00 3.15035000e+01	N
atom  6.96631000e+00 1.26124000e+00 2.99115000e+01	N
atom  3.10988000e+00 1.39669000e+00 3.72980000e+01	N
atom  3.27810000e-01 1.61608000e+00 3.55642000e+01	Si
atom  1.94653000e+00 2.58867000e+00 3.94820000e+01	N
atom  5.64652000e+00 2.60544000e+00 3.68972000e+01	N
atom  9.21322000e+00 1.64864000e+00 3.64995000e+01	Si
atom  6.68190000e+00 1.91857000e+00 3.81602000e+01	Si
atom  7.98876000e+00 1.21465000e+00 3.53811000e+01	N
atom  5.16019000e+00 6.08067000e-01 3.53899000e+01	N
atom  6.31946000e+00 1.85869000e+00 3.53059000e+01	Si
atom  8.40419000e+00 2.05963000e+00 3.79232000e+01	N
atom  4.77880000e+00 1.09432000e+00 3.70213000e+01	Si
atom  5.96219000e+00 3.97155000e-01 3.80479000e+01	N
atom  2.62009000e+00 3.99131000e+00 2.47072000e-01	Si
atom  2.51067000e+00 4.40517000e+00 1.91934000e+00	N
atom  3.54261000e+00 3.29226000e+00 4.70049000e+00	Si
atom  4.08533000e+00 3.55868000e+00 2.29215000e+00	Si
atom  4.25310000e+00 4.66195000e+00 3.80728000e+00	N
atom  4.31113000e+00 3.52581000e+00 4.99306000e-01	N
atom  7.16937000e+00 3.96894000e+00 2.95958000e+00	Si
atom  7.44694000e+00 4.62235000e+00 1.39355000e+00	N
atom  8.01503000e+00 2.87084000e+00 4.06036000e+00	N
atom  5.90195000e+00 4.31333000e+00 3.33718000e-01	Si
atom  5.80756000e+00 2.98994000e+00 2.38753000e+00	N
atom  1.94516000e+00 3.63381000e+00 5.22656000e+00	N
atom  8.08194000e-01 3.53554000e+00 7.77514000e+00	N
atom  5.14579000e-01 3.02114000e+00 6.06904000e+00	Si
atom  8.51896000e-01 4.97572000e+00 4.88892000e+00	Si
atom  5.69197000e+00 3.99351000e+00 8.57025000e+00	N
atom  4.66379000e+00 4.20251000e+00 7.23576000e+00	Si
atom  8.79115000e+00 3.35635000e+00 5.56900000e+00	Si
atom  7.26705000e+00 4.13027000e+00 7.99805000e+00	Si
atom  8.51057000e+00 3.41324000e+00 8.95299000e+00	N
atom  7.37407000e+00 3.15372000e+00 6.58460000e+00	N
atom  4.70814000e+00 3.08153000e+00 5.92009000e+00	N
atom  2.39144000e+00 3.48351000e+00 1.27044000e+01	N
atom  3.62935000e+00 4.38660000e+00 1.35533000e+01	Si
atom  2.74436000e+00 3.44523000e+00 1.10372000e+01	Si
atom  1.54332000e+00 2.95529000e+00 1.43000000e+01	Si
atom  1.33048000e+00 2.93695000e+00 1.02534000e+01	N
atom  3.59500000e+00 4.94329000e+00 1.05782000e+01	N
atom  6.27584000e+00 3.90865000e+00 1.14629000e+01	N
atom  4.90595000e+00 3.18979000e+00 1.37633000e+01	N
atom  7.73011000e+00 3.15933000e+00 1.39562000e+01	N
atom  5.06561000e+00 3.92518000e+00 1.01941000e+01	Si
atom  9.03001000e+00 4.46216000e+00 1.17607000e+01	N
atom  6.39011000e+00 2.81746000e+00 1.28478000e+01	Si
atom  7.75358000e+00 4.82313000e+00 1.45378000e+01	Si
atom  2.74280000e+00 4.24413000e+00 1.50273000e+01	N
atom  2.45423000e-01 3.63850000e+00 1.52358000e+01	N
atom  2.03632000e+00 3.90924000e+00 1.75116000e+01	N
atom  3.46102000e+00 4.22980000e+00 1.66874000e+01	Si
atom  2.32114000e+00 3.55035000e+00 1.92213000e+01	Si
atom  6.41573000e-01 4.53163000e+00 1.66766000e+01	Si
atom  4.34815000e+00 2.77262000e+00 1.65687000e+01	N
atom  6.90569000e+00 4.87341000e+00 1.60145000e+01	N
atom  7.06716000e+00 2.79088000e+00 1.94950000e+01	Si
atom  8.24174000e+00 4.29953000e+00 1.87122000e+01	N
atom  9.11319000e+00 3.21268000e+00 1.63138000e+01	N
atom  7.69224000e+00 3.87096000e+00 1.71595000e+01	Si
atom  1.87283000e+00 4.03860000e+00 2.22278000e+01	N
atom  1.29110000e+00 4.17588000e+00 2.40336000e+01	Si
atom  9.14711000e-02 3.98325000e+00 2.14711000e+01	Si
atom  -2.96225000e-01 3.69520000e+00 2.32572000e+01	N
atom  8.06965000e-01 3.16388000e+00 2.00283000e+01	N
atom  2.55560000e+00 3.03681000e+00 2.43841000e+01	N
atom  5.60464000e+00 3.61428000e+00 2.20869000e+01	Si
atom  6.54005000e+00 4.08004000e+00 2.06822000e+01	N
atom  5.19606000e+00 4.85024000e+00 2.30798000e+01	N
atom  3.38886000e+00 3.21756000e+00 2.59214000e+01	Si
atom  6.52103000e-01 4.04688000e+00 2.57681000e+01	N
atom  2.95628000e+00 3.34847000e+00 2.86337000e+01	Si
atom  3.91399000e+00 4.85726000e+00 2.63902000e+01	N
atom  2.36089000e+00 4.95464000e+00 2.89914000e+01	N
atom  6.87104000e+00 4.81557000e+00 2.71022000e+01	N
atom  5.21698000e+00 4.69369000e+00 2.76224000e+01	Si
atom  8.47740000e+00 3.68674000e+00 2.49586000e+01	N
atom  8.79107000e+00 3.31284000e+00 2.96767000e+01	N
atom  4.77736000e+00 3.04060000e+00 2.83101000e+01	N
atom  8.17991000e+00 3.70083000e+00 2.67191000e+01	Si
atom  3.38997000e+00 4.44564000e+00 3.23015000e+01	Si
atom  1.63849000e+00 4.04544000e+00 3.19795000e+01	N
atom  8.37921000e-01 3.18785000e+00 3.07428000e+01	Si
atom  1.40029000e+00 3.90409000e+00 3.37617000e+01	Si
atom  3.04659000e+00 4.43338000e+00 3.40414000e+01	N
atom  4.23916000e+00 2.91753000e+00 3.20869000e+01	N
atom  -4.75393000e-01 4.16561000e+00 3.00871000e+01	N
atom  8.28625000e+00 3.91110000e+00 3.12276000e+01	Si
atom  5.77028000e+00 3.53350000e+00 3.28093000e+01	Si
atom  6.41070000e+00 3.29287000e+00 3.44444000e+01	N
atom  7.04612000e+00 2.95982000e+00 3.19408000e+01	N
atom  5.30105000e+00 5.17779000e+00 3.30432000e+01	N
atom  1.65514000e-01 4.47664000e+00 3.61579000e+01	Si
atom  3.24744000e+00 4.11866000e+00 3.77181000e+01	N
atom  8.92095000e-01 2.91098000e+00 3.66414000e+01	N
atom  2.23032000e+00 2.73571000e+00 3.77573000e+01	Si
atom  4.91339000e+00 4.18412000e+00 3.72600000e+01	Si
atom  6.80290000e+00 4.79145000e+00 3.52321000e+01	Si
atom  7.87391000e+00 4.77686000e+00 3.66409000e+01	N
atom  8.55323000e+00 2.87045000e+00 3.94819000e+01	Si
atom  8.99775000e+00 4.46171000e+00 3.90470000e+01	N
atom  9.42008000e+00 4.40788000e+00 3.73155000e+01	Si
atom  5.80782000e+00 4.86156000e+00 3.85666000e+01	N
atom  7.51766000e-01 6.14692000e+00 3.69251000e+00	N
atom  1.46364000e+00 5.79438000e+00 2.19062000e+00	Si
atom  4.19547000e+00 6.09700000e+00 2.66969000e+00	Si
atom  -1.03951000e-01 5.48306000e+00 1.35001000e+00	N
atom  2.80765000e+00 7.03789000e+00 2.13193000e+00	N
atom  -4.21482000e-01 7.39722000e+00 3.99947000e+00	Si
atom  4.83238000e+00 7.10859000e+00 3.96925000e+00	N
atom  5.17170000e+00 5.93941000e+00 1.30136000e+00	N
atom  8.90530000e+00 5.26989000e+00 6.46354000e-01	Si
atom  9.35626000e+00 6.90590000e+00 4.94202000e-01	N
atom  6.89665000e+00 5.36204000e+00 3.96502000e+00	N
atom  5.39515000e+00 5.59368000e+00 4.77131000e+00	Si
atom  8.24847000e+00 6.25473000e+00 4.61917000e+00	Si
atom  5.84495000e+00 7.26003000e+00 4.71688000e-01	Si
atom  8.46723000e-01 5.82837000e+00 6.34858000e+00	N
atom  3.95870000e+00 6.73294000e+00 7.16983000e+00	Si
atom  1.45895000e+00 6.28545000e+00 9.19276000e+00	N
atom  3.20767000e+00 5.07561000e+00 7.49222000e+00	N
atom  1.53230000e+00 5.16775000e+00 7.74976000e+00	Si
atom  4.17928000e+00 7.22159000e+00 8.84264000e+00	N
atom  7.64366000e+00 5.80306000e+00 8.00619000e+00	N
atom  5.41636000e+00 5.61814000e+00 6.47455000e+00	N
atom  7.36898000e+00 7.35246000e+00 5.75185000e+00	N
atom  8.36009000e+00 6.80413000e+00 9.26782000e+00	Si
atom  6.54511000e+00 6.84610000e+00 7.16579000e+00	Si
atom  9.22856000e+00 4.97553000e+00 5.36994000e+00	N
atom  3.98068000e+00 6.05866000e+00 1.33649000e+01	N
atom  2.87085000e-03 6.78056000e+00 1.45672000e+01	Si
atom  3.14149000e+00 6.53267000e+00 1.00651000e+01	Si
atom  9.28596000e+00 5.63772000e+00 1.42991000e+01	N
atom  5.59038000e+00 6.73887000e+00 1.35424000e+01	Si
atom  6.91631000e+00 5.67709000e+00 1.32854000e+01	N
atom  7.59002000e+00 6.82456000e+00 1.08570000e+01	N
atom  7.47909000e+00 5.28695000e+00 1.17179000e+01	Si
atom  3.50215000e+00 6.41436000e+00 1.88067000e+01	Si
atom  7.51449000e-01 6.18526000e+00 1.59922000e+01	N
atom  4.24108000e+00 5.53551000e+00 1.73543000e+01	N
atom  9.50152000e+00 6.62513000e+00 1.68442000e+01	N
atom  5.58929000e+00 7.09629000e+00 1.52362000e+01	N
atom  5.74254000e+00 6.09583000e+00 1.66478000e+01	Si
atom  6.72251000e+00 6.98856000e+00 1.77875000e+01	N
atom  3.39531000e-01 5.74357000e+00 2.14197000e+01	N
atom  2.07398000e+00 5.56825000e+00 2.12870000e+01	Si
atom  3.01432000e+00 6.82855000e+00 2.20250000e+01	N
atom  1.73422000e+00 5.83229000e+00 2.43157000e+01	N
atom  2.43450000e+00 7.24192000e+00 2.35500000e+01	Si
atom  2.70036000e+00 5.15323000e+00 1.97169000e+01	N
atom  6.10417000e+00 6.18598000e+00 2.36155000e+01	Si
atom  7.76652000e+00 5.99548000e+00 2.31526000e+01	N
atom  7.29444000e+00 6.62295000e+00 2.03596000e+01	N
atom  8.88088000e+00 5.24857000e+00 2.41953000e+01	Si
atom  7.88400000e+00 5.04469000e+00 2.02390000e+01	Si
atom  7.71181000e+00 7.29483000e+00 2.18884000e+01	Si
atom  4.71185000e+00 7.11951000e+00 1.97977000e+01	N
atom  1.10427000e+00 6.12082000e+00 2.83413000e+01	Si
atom  2.79432000e+00 6.07397000e+00 2.57605000e+01	Si
atom  2.14662000e+00 6.93658000e+00 2.72455000e+01	N
atom  -3.83033000e-01 6.11084000e+00 2.74133000e+01	N
atom  3.47318000e+00 6.07741000e+00 2.97275000e+01	Si
atom  5.03904000e+00 5.94489000e+00 2.89041000e+01	N
atom  6.24170000e+00 6.54906000e+00 2.52672000e+01	N
atom  7.51053000e+00 6.29424000e+00 2.64314000e+01	Si
atom  9.36692000e+00 5.91224000e+00 2.94512000e+01	N
atom  7.38642000e+00 7.28870000e+00 2.78041000e+01	N
atom  9.09447000e+00 6.12185000e+00 2.56467000e+01	N
atom  3.38244000e+00 5.98636000e+00 3.14575000e+01	N
atom  -1.27038000e-01 6.47780000e+00 3.34986000e+01	Si
atom  3.69128000e+00 7.17646000e+00 3.41886000e+01	N
atom  4.29019000e+00 5.57421000e+00 3.44919000e+01	Si
atom  2.77595000e+00 7.15216000e+00 3.25271000e+01	Si
atom  2.71015000e-01 5.04657000e+00 3.44450000e+01	N
atom  4.54413000e-01 6.66685000e+00 2.98857000e+01	N
atom  6.68672000e+00 6.16119000e+00 3.27530000e+01	Si
atom  7.51393000e+00 5.99139000e+00 3.42606000e+01	N
atom  9.06026000e+00 6.49738000e+00 3.10413000e+01	Si
atom  7.75317000e+00 5.49928000e+00 3.15793000e+01	N
atom  1.78648000e+00 5.38998000e+00 3.95076000e+01	N
atom  2.43837000e-02 5.29192000e+00 3.95582000e+01	Si
atom  2.35597000e+00 5.60219000e+00 3.79069000e+01	Si
atom  2.99114000e+00 7.02376000e+00 3.71601000e+01	N
atom  7.61340000e-01 5.60544000e+00 3.73247000e+01	N
atom  5.92623000e-01 7.23737000e+00 3.69320000e+01	Si
atom  8.19752000e+00 7.24897000e+00 3.51586000e+01	Si
atom  5.27049000e+00 5.24748000e+00 3.58666000e+01	N
atom  6.97138000e+00 5.92146000e+00 3.77404000e+01	Si
atom  6.97397000e+00 7.19356000e+00 3.90876000e+01	N
atom  7.28187000e+00 7.30967000e+00 3.65728000e+01	N
atom  3.37426000e+00 8.52612000e+00 1.36118000e+00	Si
atom  4.39984000e+00 9.54630000e+00 2.29504000e+00	N
atom  1.91194000e+00 9.40952000e+00 9.71579000e-01	N
atom  4.50762000e+00 8.23085000e+00 4.19836000e-02	N
atom  9.27271000e+00 9.40756000e+00 1.55183000e+00	N
atom  6.78747000e+00 8.35438000e+00 1.37709000e+00	N
atom  6.72455000e+00 9.18178000e+00 4.07832000e+00	N
atom  8.35046000e+00 8.32686000e+00 4.07937000e-01	Si
atom  6.18466000e+00 9.60384000e+00 2.49419000e+00	Si
atom  9.62531000e+00 9.84709000e+00 4.47369000e+00	N
atom  9.01086000e+00 7.65374000e+00 3.91380000e+00	N
atom  5.66492000e-01 8.51496000e+00 4.89078000e+00	N
atom  -2.07645000e-01 7.89515000e+00 7.55239000e+00	N
atom  3.39646000e+00 9.20304000e+00 6.46523000e+00	Si
atom  2.60705000e+00 7.68132000e+00 6.63644000e+00	N
atom  9.89704000e-01 7.55078000e+00 6.30232000e+00	Si
atom  1.69905000e-01 7.44133000e+00 9.16216000e+00	Si
atom  4.10887000e+00 9.76941000e+00 4.90621000e+00	N
atom  7.87213000e+00 9.36179000e+00 8.07372000e+00	Si
atom  6.63895000e+00 8.14872000e+00 8.33394000e+00	N
atom  5.09635000e+00 8.83502000e+00 8.59067000e+00	Si
atom  9.17074000e+00 8.37179000e+00 8.73854000e+00	N
atom  8.17455000e+00 8.83134000e+00 4.97583000e+00	Si
atom  8.09878000e+00 9.85375000e+00 6.43465000e+00	N
atom  5.34248000e+00 8.54123000e+00 4.84528000e+00	Si
atom  4.98428000e+00 8.11620000e+00 6.57283000e+00	N
atom  3.44603000e+00 8.70746000e+00 1.41049000e+01	N
atom  3.29761000e+00 7.80642000e+00 1.13901000e+01	N
atom  2.78489000e-01 8.95596000e+00 9.95709000e+00	N
atom  2.06782000e+00 9.65216000e+00 1.47073000e+01	Si
atom  1.23007000e+00 7.19662000e+00 1.33955000e+01	N
atom  2.84900000e+00 7.40717000e+00 1.30815000e+01	Si
atom  4.56629000e+00 9.01125000e+00 1.16837000e+01	Si
atom  5.33280000e+00 9.55255000e+00 1.02165000e+01	N
atom  7.47140000e+00 8.24746000e+00 1.19450000e+01	Si
atom  8.35222000e+00 8.46770000e+00 1.35052000e+01	N
atom  5.80279000e+00 8.06550000e+00 1.25170000e+01	N
atom  7.53236000e+00 9.50614000e+00 1.46867000e+01	Si
atom  2.28913000e+00 7.61273000e+00 1.82968000e+01	N
atom  2.58767000e+00 9.30444000e+00 1.78135000e+01	Si
atom  1.68246000e+00 8.99215000e+00 1.62776000e+01	N
atom  -2.02838000e-01 8.85824000e+00 1.91595000e+01	Si
atom  1.03817000e+00 7.54420000e+00 1.70669000e+01	Si
atom  4.26709000e+00 9.13180000e+00 1.68830000e+01	N
atom  8.37408000e+00 8.65453000e+00 1.59979000e+01	N
atom  4.72231000e+00 8.59227000e+00 1.52612000e+01	Si
atom  8.61370000e+00 8.65697000e+00 1.88240000e+01	N
atom  6.28514000e+00 7.65404000e+00 1.93504000e+01	Si
atom  6.04021000e+00 9.40835000e+00 1.91124000e+01	N
atom  8.30551000e+00 7.64101000e+00 1.74849000e+01	Si
atom  9.25387000e+00 7.27740000e+00 1.51130000e+01	Si
atom  9.52732000e-01 8.13008000e+00 2.34345000e+01	N
atom  4.71482000e-01 9.21355000e+00 2.21540000e+01	Si
atom  -7.05836000e-02 8.38009000e+00 2.07692000e+01	N
atom  4.49408000e+00 7.54716000e+00 2.14752000e+01	Si
atom  4.52573000e+00 9.34929000e+00 2.17678000e+01	N
atom  7.56946000e+00 9.07143000e+00 2.17041000e+01	N
atom  5.91664000e+00 9.15289000e+00 2.44766000e+01	N
atom  6.06561000e+00 9.33380000e+00 2.26375000e+01	Si
atom  9.35335000e+00 9.30981000e+00 2.17119000e+01	Si
atom  9.55693000e+00 7.55473000e+00 2.19548000e+01	N
atom  5.90054000e+00 7.48109000e+00 2.25160000e+01	N
atom  3.58380000e+00 7.46462000e+00 2.48266000e+01	N
atom  3.15479000e+00 8.22093000e+00 2.77850000e+01	Si
atom  3.30674000e+00 7.80495000e+00 2.94808000e+01	N
atom  5.79189000e+00 7.52098000e+00 2.84934000e+01	Si
atom  5.17317000e+00 7.96092000e+00 2.54965000e+01	Si
atom  8.95674000e+00 9.33333000e+00 2.84762000e+01	N
atom  8.91603000e+00 7.58265000e+00 2.85635000e+01	Si
atom  4.76332000e+00 8.20146000e+00 2.71442000e+01	N
atom  5.97310000e+00 8.79027000e+00 2.97897000e+01	N
atom  3.50641000e+00 8.77822000e+00 3.21722000e+01	N
atom  3.16058000e+00 9.15253000e+00 3.04913000e+01	Si
atom  5.12155000e-01 8.17192000e+00 3.08761000e+01	Si
atom  1.48048000e+00 9.48651000e+00 3.02100000e+01	N
atom  1.07159000e+00 7.28357000e+00 3.23619000e+01	N
atom  4.73808000e+00 8.41901000e+00 3.33945000e+01	Si
atom  6.88480000e+00 8.52937000e+00 3.12275000e+01	Si
atom  8.35904000e+00 7.98990000e+00 3.05476000e+01	N
atom  6.06444000e+00 7.69010000e+00 3.24445000e+01	N
atom  8.33445000e+00 8.75090000e+00 3.43123000e+01	N
atom  5.66809000e+00 9.48341000e+00 3.44446000e+01	N
atom  9.43101000e+00 9.43805000e+00 3.03969000e+01	Si
atom  -4.89099000e-03 9.02215000e+00 3.50281000e+01	Si
atom  1.23295000e+00 7.87551000e+00 3.54854000e+01	N
atom  2.93788000e+00 7.81980000e+00 3.56347000e+01	Si
atom  7.22064000e-01 8.27388000e+00 3.83189000e+01	N
atom  3.35620000e+00 9.51948000e+00 3.54570000e+01	N
atom  1.51364000e+00 9.43871000e+00 3.92361000e+01	Si
atom  5.56275000e+00 9.10290000e+00 3.74918000e+01	N
atom  4.61854000e+00 9.57776000e+00 3.89097000e+01	Si
atom  7.12167000e+00 8.51097000e+00 3.79450000e+01	Si
atom  8.24115000e+00 9.53260000e+00 3.88904000e+01	N
atom  8.64808000e-01 1.06438000e+01 1.78760000e+00	Si
atom  1.82985000e+00 1.05804000e+01 3.48925000e+00	N
atom  3.53974000e+00 1.04594000e+01 3.48556000e+00	Si
atom  6.65294000e+00 1.11816000e+01 2.17120000e+00	N
atom  6.28624000e+00 1.17541000e+01 6.38854000e-01	Si
atom  9.71838000e-01 1.01504000e+01 4.99634000e+00	Si
atom  2.73964000e+00 1.12809000e+01 7.67980000e+00	Si
atom  1.77376000e+00 1.12591000e+01 9.15129000e+00	N
atom  4.01738000e+00 1.00371000e+01 7.89642000e+00	N
atom  1.97742000e+00 1.03328000e+01 6.36528000e+00	N
atom  -2.82336000e-01 1.12398000e+01 5.05890000e+00	N
atom  9.04934000e+00 1.11530000e+01 5.63100000e+00	Si
atom  7.25661000e+00 1.07687000e+01 8.87182000e+00	N
atom  9.23235000e+00 1.18361000e+01 7.34230000e+00	N
atom  7.56068000e+00 1.20740000e+01 7.77167000e+00	Si
atom  6.34193000e-01 1.01643000e+01 1.37759000e+01	N
atom  1.05240000e+00 1.17526000e+01 1.14208000e+01	N
atom  5.89066000e-01 1.18675000e+01 1.31438000e+01	Si
atom  2.69637000e-01 1.07440000e+01 1.02010000e+01	Si
atom  4.41983000e+00 1.06721000e+01 1.23209000e+01	N
atom  4.61336000e+00 1.08081000e+01 1.40165000e+01	Si
atom  6.55934000e+00 1.07481000e+01 1.04306000e+01	Si
atom  7.76112000e+00 9.88541000e+00 1.13218000e+01	N
atom  9.29394000e+00 1.07596000e+01 1.13684000e+01	Si
atom  5.81628000e+00 9.89875000e+00 1.47615000e+01	N
atom  3.09159000e+00 1.10391000e+01 1.49419000e+01	N
atom  3.49818000e+00 1.05923000e+01 1.86512000e+01	N
atom  2.24436000e-01 1.12669000e+01 1.88429000e+01	Si
atom  1.16050000e+00 9.79025000e+00 1.88018000e+01	N
atom  5.57347000e+00 1.19056000e+01 1.83180000e+01	N
atom  5.04708000e+00 1.02598000e+01 1.80306000e+01	Si
atom  7.64177000e+00 1.00195000e+01 1.92038000e+01	Si
atom  8.20590000e+00 1.10906000e+01 1.78354000e+01	N
atom  8.31773000e+00 1.10627000e+01 1.51572000e+01	N
atom  9.01982000e+00 1.02264000e+01 1.65735000e+01	Si
atom  1.81163000e+00 1.03749000e+01 2.18904000e+01	N
atom  3.56403000e+00 1.07389000e+01 2.19862000e+01	Si
atom  6.63098000e-01 1.16623000e+01 2.17419000e+01	Si
atom  3.74512000e+00 1.18054000e+01 2.33099000e+01	N
atom  4.44292000e+00 1.17939000e+01 2.08618000e+01	N
atom  6.52219000e+00 1.10459000e+01 2.29889000e+01	N
atom  7.84938000e+00 1.16605000e+01 2.20391000e+01	Si
atom  7.93008000e+00 1.14369000e+01 2.02737000e+01	N
atom  9.20450000e+00 1.07336000e+01 2.27285000e+01	N
atom  6.70931000e+00 1.06799000e+01 2.47287000e+01	Si
atom  3.13759000e-01 1.10544000e+01 2.51144000e+01	N
atom  1.24156000e+00 1.05919000e+01 2.87820000e+01	Si
atom  -2.07557000e-01 1.06260000e+01 2.78956000e+01	N
atom  3.45397000e+00 1.20221000e+01 2.93727000e+01	Si
atom  2.32523000e+00 9.70744000e+00 2.76331000e+01	N
atom  8.13000000e+00 1.03804000e+01 2.75359000e+01	Si
atom  6.51452000e+00 1.07797000e+01 2.81327000e+01	N
atom  8.13816000e+00 1.06291000e+01 2.56997000e+01	N
atom  5.70462000e+00 1.05090000e+01 2.96038000e+01	Si
atom  5.58414000e+00 1.16021000e+01 2.55934000e+01	N
atom  9.31974000e+00 1.16897000e+01 2.75641000e+01	N
atom  9.43784000e-01 1.02117000e+01 3.40202000e+01	N
atom  3.14875000e+00 1.19938000e+01 3.38617000e+01	N
atom  2.35148000e+00 1.07717000e+01 3.48031000e+01	Si
atom  -2.18578000e-01 1.13945000e+01 3.33332000e+01	Si
atom  4.00751000e+00 1.04885000e+01 2.98329000e+01	N
atom  1.61891000e-01 1.22844000e+01 3.19041000e+01	N
atom  7.32051000e+00 1.00036000e+01 3.19640000e+01	N
atom  7.90420000e+00 1.15914000e+01 3.13334000e+01	Si
atom  9.23800000e+00 1.11653000e+01 3.02863000e+01	N
atom  7.49033000e+00 1.14615000e+01 3.42748000e+01	N
atom  7.14423000e+00 9.87165000e+00 3.36835000e+01	Si
atom  6.37002000e+00 1.19507000e+01 3.05625000e+01	N
atom  3.01264000e+00 1.01430000e+01 3.84861000e+01	N
atom  1.82241000e+00 1.14925000e+01 3.62544000e+01	N
atom  3.10864000e+00 1.15410000e+01 3.75043000e+01	Si
atom  1.41113000e-01 1.16705000e+01 3.60428000e+01	Si
atom  3.19332000e-01 1.08039000e+01 3.92604000e+01	N
atom  7.52345000e+00 1.20091000e+01 3.71008000e+01	N
atom  4.64694000e+00 1.15055000e+01 3.67819000e+01	N
atom  8.51794000e+00 1.18685000e+01 3.56133000e+01	Si
atom  5.93844000e+00 1.19207000e+01 3.78679000e+01	Si
atom  8.51639000e+00 1.12805000e+01 3.84229000e+01	Si
atom  5.53893000e+00 1.09607000e+01 3.93278000e+01	N
atom  4.95649000e+00 9.90481000e+00 3.59840000e+01	Si
atom  1.09259000e+00 1.39984000e+01 1.22651000e+00	Si
atom  1.22642000e+00 1.23792000e+01 1.78479000e+00	N
atom  1.99663000e+00 1.23801000e+01 3.34558000e+00	Si
atom  1.39184000e+00 1.34736000e+01 4.52729000e+00	N
atom  3.69234000e+00 1.21960000e+01 3.23320000e+00	N
atom  4.83805000e+00 1.33014000e+01 2.58798000e+00	Si
atom  8.59965000e+00 1.35381000e+01 6.58812000e-01	Si
atom  5.35901000e+00 1.31885000e+01 8.97074000e-01	N
atom  6.07252000e+00 1.33469000e+01 3.75264000e+00	N
atom  8.54850000e+00 1.33695000e+01 2.34679000e+00	N
atom  7.40626000e+00 1.23602000e+01 3.20703000e+00	Si
atom  7.85276000e+00 1.22112000e+01 -1.46790000e-01	N
atom  -5.66075000e-02 1.29347000e+01 5.51910000e+00	Si
atom  2.14680000e-01 1.33552000e+01 7.25658000e+00	N
atom  3.22661000e+00 1.29099000e+01 7.38257000e+00	N
atom  1.83729000e+00 1.39668000e+01 7.67741000e+00	Si
atom  1.81101000e+00 1.39719000e+01 9.44525000e+00	N
atom  7.92658000e+00 1.21659000e+01 4.85688000e+00	N
atom  6.08861000e+00 1.23784000e+01 6.86600000e+00	N
atom  4.87180000e+00 1.35052000e+01 7.25638000e+00	Si
atom  6.74324000e+00 1.33820000e+01 5.46896000e+00	Si
atom  7.76762000e+00 1.33954000e+01 8.81366000e+00	N
atom  3.63143000e+00 1.32176000e+01 1.10606000e+01	N
atom  1.70287000e+00 1.30196000e+01 1.37933000e+01	N
atom  2.22582000e+00 1.24288000e+01 1.03555000e+01	Si
atom  3.20925000e+00 1.27301000e+01 1.46884000e+01	Si
atom  4.76022000e+00 1.26165000e+01 1.37613000e+01	N
atom  4.74200000e+00 1.22945000e+01 1.19400000e+01	Si
atom  7.42248000e+00 1.33455000e+01 1.36442000e+01	N
atom  7.55614000e+00 1.31932000e+01 1.19382000e+01	Si
atom  5.99444000e+00 1.36870000e+01 1.45020000e+01	Si
atom  8.90680000e+00 1.23652000e+01 1.15113000e+01	N
atom  6.19975000e+00 1.24093000e+01 1.10022000e+01	N
atom  6.43575000e+00 1.38622000e+01 9.86124000e+00	Si
atom  2.88102000e+00 1.33631000e+01 1.90040000e+01	N
atom  3.33950000e+00 1.35235000e+01 1.62080000e+01	N
atom  2.12922000e+00 1.34074000e+01 1.74161000e+01	Si
atom  7.48338000e-01 1.23700000e+01 1.76077000e+01	N
atom  -2.26868000e-01 1.36803000e+01 1.73043000e+01	Si
atom  4.04119000e+00 1.21243000e+01 1.92380000e+01	Si
atom  8.11390000e+00 1.28049000e+01 1.51598000e+01	Si
atom  9.44486000e+00 1.37551000e+01 1.58218000e+01	N
atom  8.00369000e+00 1.37221000e+01 1.81893000e+01	N
atom  6.38550000e+00 1.32345000e+01 1.76836000e+01	Si
atom  8.72137000e+00 1.23076000e+01 1.88837000e+01	Si
atom  6.55370000e+00 1.31887000e+01 1.60170000e+01	N
atom  5.85734000e-01 1.30323000e+01 2.28377000e+01	N
atom  1.97920000e-01 1.23685000e+01 2.02207000e+01	N
atom  2.97020000e+00 1.40343000e+01 2.19533000e+01	N
atom  4.50953000e+00 1.31142000e+01 2.20053000e+01	Si
atom  -3.08003000e-01 1.25326000e+01 2.43436000e+01	Si
atom  4.69817000e+00 1.25723000e+01 2.45594000e+01	Si
atom  8.16705000e+00 1.33648000e+01 2.22079000e+01	N
atom  5.35789000e+00 1.38221000e+01 2.34170000e+01	N
atom  5.58893000e+00 1.42019000e+01 2.09306000e+01	N
atom  4.04076000e+00 1.40877000e+01 2.75074000e+01	Si
atom  1.30710000e+00 1.38439000e+01 2.89193000e+01	Si
atom  4.10498000e+00 1.37408000e+01 2.57715000e+01	N
atom  3.36599000e-02 1.37841000e+01 2.53834000e+01	N
atom  1.73304000e+00 1.21431000e+01 2.90933000e+01	N
atom  4.43703000e+00 1.25182000e+01 2.80498000e+01	N
atom  8.88284000e+00 1.35361000e+01 2.74681000e+01	Si
atom  5.84478000e+00 1.20926000e+01 2.71711000e+01	Si
atom  7.12535000e+00 1.33113000e+01 2.70394000e+01	N
atom  3.83442000e+00 1.31778000e+01 3.05931000e+01	N
atom  4.03548000e+00 1.35202000e+01 3.39045000e+01	Si
atom  1.22320000e+00 1.42830000e+01 3.06057000e+01	N
atom  -1.85480000e-01 1.42371000e+01 3.44713000e+01	Si
atom  -2.92741000e-01 1.38190000e+01 3.13984000e+01	Si
atom  -1.06673000e-01 1.25449000e+01 3.45839000e+01	N
atom  2.83978000e+00 1.44688000e+01 3.10682000e+01	Si
atom  8.30604000e+00 1.30585000e+01 3.21775000e+01	N
atom  5.45775000e+00 1.30318000e+01 3.29697000e+01	N
atom  5.42811000e+00 1.31108000e+01 3.12380000e+01	Si
atom  6.87110000e+00 1.30591000e+01 3.40422000e+01	Si
atom  -3.26775000e-01 1.26470000e+01 3.73934000e+01	N
atom  2.40074000e+00 1.27980000e+01 3.85448000e+01	N
atom  6.97160000e-01 1.23852000e+01 3.87282000e+01	Si
atom  3.58766000e+00 1.43272000e+01 3.54191000e+01	N
atom  2.20327000e+00 1.44860000e+01 3.87651000e+01	Si
atom  6.90322000e-02 1.36133000e+01 3.98094000e+01	N
atom  6.08771000e+00 1.38450000e+01 3.54538000e+01	N
atom  5.86588000e+00 1.36880000e+01 3.79382000e+01	N
atom  7.33689000e+00 1.38050000e+01 3.67592000e+01	Si
atom  8.42377000e+00 1.36131000e+01 3.51830000e+01	N
atom  5.90393000e+00 1.43364000e+01 3.95815000e+01	Si
atom  2.71413000e-01 1.50439000e+01 2.32844000e+00	N
atom  3.67989000e+00 1.57296000e+01 1.15125000e+00	Si
atom  2.37201000e+00 1.47718000e+01 5.28093000e-01	N
atom  4.19969000e+00 1.49748000e+01 2.61560000e+00	N
atom  3.86858000e-01 1.48870000e+01 4.03917000e+00	Si
atom  4.21523000e+00 1.65431000e+01 3.37133000e+00	Si
atom  8.11259000e+00 1.55875000e+01 4.11504000e+00	N
atom  8.07334000e+00 1.63209000e+01 8.43173000e-01	Si
atom  7.43345000e+00 1.47603000e+01 2.27189000e-01	N
atom  9.21509000e+00 1.47450000e+01 3.07925000e+00	Si
atom  9.46087000e+00 1.56703000e+01 1.69782000e+00	N
atom  5.66193000e+00 1.70322000e+01 4.19207000e+00	N
atom  4.90530000e+00 1.57325000e+01 -8.45323000e-02	N
atom  3.29442000e+00 1.64022000e+01 4.86949000e+00	N
atom  5.11725000e-01 1.62626000e+01 5.10862000e+00	N
atom  2.24862000e+00 1.55352000e+01 7.32409000e+00	N
atom  5.99525000e-01 1.63605000e+01 9.28421000e+00	N
atom  2.02447000e+00 1.64172000e+01 5.93341000e+00	Si
atom  3.41245000e+00 1.61934000e+01 9.80121000e+00	N
atom  8.56903000e+00 1.59391000e+01 8.95316000e+00	N
atom  4.92563000e+00 1.62641000e+01 5.60718000e+00	Si
atom  9.30872000e+00 1.51705000e+01 5.55179000e+00	Si
atom  4.87188000e+00 1.61409000e+01 8.74669000e+00	Si
atom  5.21790000e+00 1.46163000e+01 5.94343000e+00	N
atom  5.28960000e+00 1.44519000e+01 8.75062000e+00	N
atom  8.73961000e+00 1.45322000e+01 7.97983000e+00	Si
atom  7.83587000e+00 1.43582000e+01 6.47694000e+00	N
atom  2.58267000e+00 1.55783000e+01 1.42326000e+01	N
atom  4.16048000e+00 1.59751000e+01 1.38144000e+01	Si
atom  3.22500000e+00 1.48927000e+01 1.10382000e+01	Si
atom  1.58594000e+00 1.49918000e+01 1.17334000e+01	N
atom  -1.31075000e-01 1.51519000e+01 1.40612000e+01	N
atom  6.17001000e-01 1.49340000e+01 1.03000000e+01	Si
atom  1.35346000e+00 1.46883000e+01 1.34051000e+01	Si
atom  4.36657000e+00 1.58208000e+01 1.21018000e+01	N
atom  8.69309000e+00 1.57858000e+01 1.06953000e+01	Si
atom  7.40587000e+00 1.46729000e+01 1.10893000e+01	N
atom  1.07075000e+00 1.48217000e+01 1.68592000e+01	N
atom  2.04341000e+00 1.58606000e+01 1.58440000e+01	Si