lattice_vector  3.98907207e+01 0.00000000e+00 0.00000000e+00
lattice_vector  2.44260217e-15 3.98907207e+01 0.00000000e+00
lattice_vector  2.44260217e-15 2.44260217e-15 3.98907207e+01
atom  3.34089000e+00 2.26568000e+00 1.13884000e+00	Si
atom  3.78089000e+00 3.97563000e+00 8.48050000e-01	N
atom  5.41179000e-01 1.73971000e+00 8.32322000e-01	Si
atom  -1.07978000e-01 4.15345000e+00 1.36554000e+00	Si
atom  2.11360000e+00 1.62177000e+00 1.30941000e-01	N
atom  5.59330000e-01 2.81199000e+00 2.22462000e+00	N
atom  2.66591000e+00 5.26238000e+00 3.93388000e-01	Si
atom  4.74212000e+00 1.26788000e+00 7.79943000e-01	N
atom  7.24464000e+00 7.47353000e-01 1.86305000e+00	N
atom  5.98911000e+00 1.97771000e+00 1.74974000e+00	Si
atom  6.66254000e+00 3.15766000e+00 6.54304000e-01	N
atom  8.70396000e+00 4.84875000e+00 8.05351000e-01	N
atom  5.35408000e+00 4.32673000e+00 4.04331000e-01	Si
atom  9.16753000e+00 2.06641000e+00 2.76389000e-01	N
atom  8.17214000e+00 6.04252000e-01 4.16052000e-01	Si
atom  8.21904000e+00 3.46272000e+00 -4.26037000e-02	Si
atom  1.05424000e+00 5.36140000e+00 1.16047000e+00	N
atom  9.42671000e-01 8.59470000e+00 1.33385000e+00	N
atom  3.39460000e+00 9.49146000e+00 1.20512000e+00	N
atom  3.37620000e+00 6.86427000e+00 7.77496000e-01	N
atom  3.45370000e-01 6.97429000e+00 1.22637000e+00	Si
atom  2.26858000e+00 8.33648000e+00 2.93972000e-01	Si
atom  2.44627000e-01 1.00935000e+01 7.43032000e-01	Si
atom  5.01171000e+00 7.13987000e+00 1.17596000e+00	Si
atom  7.23495000e+00 9.50542000e+00 1.94428000e+00	N
atom  5.57746000e+00 8.36034000e+00 7.62775000e-02	N
atom  7.19186000e+00 8.83410000e+00 2.95437000e-01	Si
atom  6.01030000e+00 5.74444000e+00 1.06595000e+00	N
atom  8.06496000e+00 7.39051000e+00 2.88833000e-01	N
atom  7.69629000e+00 6.14577000e+00 1.40336000e+00	Si
atom  3.04289000e+00 2.11183000e+00 2.87283000e+00	N
atom  1.60412000e+00 2.75614000e+00 3.60195000e+00	Si
atom  7.61778000e-01 1.39577000e+00 4.32842000e+00	N
atom  4.38203000e+00 1.65474000e+00 3.83811000e+00	Si
atom  1.72443000e+00 3.97923000e+00 4.79774000e+00	N
atom  5.66676000e+00 2.66849000e+00 3.30402000e+00	N
atom  8.11172000e+00 5.19023000e-01 4.48474000e+00	N
atom  6.21962000e+00 3.83524000e+00 4.40132000e+00	Si
atom  1.72372000e+00 1.02154000e+01 4.05601000e+00	Si
atom  -2.37622000e-01 6.92304000e+00 2.86142000e+00	N
atom  3.97488000e+00 9.10611000e+00 2.82223000e+00	Si
atom  2.77131000e+00 8.82624000e+00 4.02606000e+00	N
atom  8.34928000e+00 6.60230000e+00 2.97009000e+00	N
atom  5.00797000e+00 7.73032000e+00 2.81299000e+00	N
atom  6.42516000e+00 5.52643000e+00 4.18583000e+00	N
atom  8.91411000e+00 9.72363000e+00 2.38421000e+00	Si
atom  8.18727000e+00 5.45440000e+00 4.36106000e+00	Si
atom  5.70684000e+00 7.11955000e+00 4.28952000e+00	Si
atom  4.11453000e+00 1.49496000e+00 5.51147000e+00	N
atom  1.63234000e+00 5.17900000e+00 5.94385000e+00	Si
atom  5.24736000e+00 3.84632000e+00 5.80577000e+00	N
atom  4.83976000e+00 2.46373000e+00 6.74722000e+00	Si
atom  8.83439000e+00 2.13502000e+00 4.67981000e+00	Si
atom  7.98920000e+00 3.67236000e+00 4.58075000e+00	N
atom  4.27109000e+00 6.76555000e+00 5.22125000e+00	N
atom  2.85070000e+00 7.75430000e+00 5.41461000e+00	Si
atom  8.78105000e-02 8.02147000e+00 5.34464000e+00	Si
atom  1.38887000e+00 6.72404000e+00 5.20702000e+00	N
atom  3.92970000e-01 9.81107000e+00 5.04793000e+00	N
atom  6.48614000e+00 8.22279000e+00 5.59529000e+00	N
atom  8.34850000e+00 6.14549000e+00 5.95390000e+00	N
atom  6.59506000e+00 9.94799000e+00 5.80493000e+00	Si
atom  4.68528000e+00 5.41254000e+00 6.34603000e+00	Si
atom  7.12018000e+00 7.03465000e+00 6.80034000e+00	Si
atom  3.60795000e+00 2.73790000e+00 7.95346000e+00	N
atom  2.33061000e+00 1.61598000e+00 8.17154000e+00	Si
atom  7.49373000e-01 2.11699000e+00 7.65480000e+00	N
atom  3.95014000e-01 3.69640000e+00 8.39656000e+00	Si
atom  3.18235000e+00 4.36997000e+00 8.44391000e+00	Si
atom  3.50571000e-01 5.02199000e+00 7.18426000e+00	N
atom  3.07440000e+00 5.19376000e+00 6.88693000e+00	N
atom  6.16306000e+00 1.57459000e+00 7.45813000e+00	N
atom  6.31782000e+00 1.20841000e+00 9.18743000e+00	Si
atom  1.26268000e+00 8.79477000e+00 7.83243000e+00	Si
atom  6.78330000e-02 7.80213000e+00 7.02963000e+00	N
atom  2.66994000e+00 8.56883000e+00 6.93223000e+00	N
atom  5.66231000e+00 5.54951000e+00 9.19759000e+00	Si
atom  7.17196000e+00 1.01967000e+01 7.44715000e+00	N
atom  7.83320000e+00 7.75953000e+00 8.21289000e+00	N
atom  5.92547000e+00 5.90027000e+00 7.42506000e+00	N
atom  8.55159000e+00 9.30927000e+00 7.93160000e+00	Si
atom  2.10226000e+00 3.63279000e+00 1.09843000e+01	Si
atom  2.16169000e+00 9.46540000e-01 9.81067000e+00	N
atom  3.51224000e+00 1.19800000e+00 1.08722000e+01	Si
atom  3.71907000e+00 2.90942000e+00 1.11254000e+01	N
atom  1.75174000e+00 4.01701000e+00 9.34166000e+00	N
atom  -4.17429000e-01 7.35584000e-01 1.10611000e+01	N
atom  7.88614000e+00 3.77090000e+00 1.00972000e+01	Si
atom  7.50734000e+00 2.04665000e+00 1.00256000e+01	N
atom  6.17177000e+00 4.10804000e+00 1.00578000e+01	N
atom  5.02405000e+00 5.40596000e-01 1.01450000e+01	N
atom  5.19183000e+00 3.64003000e+00 1.15030000e+01	Si
atom  8.74543000e+00 5.23087000e+00 9.47677000e+00	N
atom  -4.41620000e-01 8.05486000e+00 9.96109000e+00	Si
atom  3.98111000e+00 5.49228000e+00 9.46980000e+00	N
atom  1.31126000e+00 8.32515000e+00 9.51564000e+00	N
atom  2.52817000e+00 8.97735000e+00 1.05922000e+01	Si
atom  3.73050000e+00 6.03222000e+00 1.10863000e+01	Si
atom  3.78020000e+00 7.86545000e+00 1.12979000e+01	N
atom  8.85388000e+00 1.00444000e+01 9.52382000e+00	N
atom  8.07571000e+00 6.86069000e+00 9.71602000e+00	Si
atom  8.81424000e+00 7.70046000e+00 1.10470000e+01	N
atom  5.64362000e+00 8.06722000e+00 1.11378000e+01	Si
atom  6.13526000e+00 9.62300000e+00 1.05451000e+01	N
atom  6.25302000e+00 6.87224000e+00 1.01118000e+01	N
atom  -1.81802000e-01 1.68452000e+00 1.25006000e+01	Si
atom  7.99000000e-01 2.99723000e+00 1.19166000e+01	N
atom  -2.64188000e-01 4.17672000e+00 1.26951000e+01	Si
atom  6.27070000e-01 1.05709000e+00 1.38887000e+01	N
atom  2.36081000e+00 5.08932000e+00 1.18118000e+01	N
atom  2.33508000e+00 7.49169000e-01 1.38814000e+01	Si
atom  2.26124000e+00 5.40674000e+00 1.35336000e+01	Si
atom  8.51415000e+00 4.24276000e+00 1.33532000e+01	Si
atom  6.00566000e+00 2.43848000e+00 1.25032000e+01	N
atom  8.60102000e+00 8.48392000e-01 1.24745000e+01	N
atom  9.34807000e+00 1.67083000e+00 1.37313000e+01	Si
atom  8.62971000e+00 3.57668000e+00 1.16888000e+01	N
atom  5.25347000e+00 1.89803000e+00 1.39354000e+01	Si
atom  4.90392000e+00 5.25087000e+00 1.21407000e+01	N
atom  7.54050000e+00 1.94301000e+00 1.17474000e+01	Si
atom  7.07608000e+00 5.02823000e+00 1.38374000e+01	N
atom  1.73750000e+00 9.16745000e+00 1.20863000e+01	N
atom  2.27000000e-01 9.92787000e+00 1.21737000e+01	Si
atom  3.08868000e+00 8.32812000e+00 1.28411000e+01	Si
atom  2.46247000e+00 7.11421000e+00 1.37460000e+01	N
atom  6.80052000e+00 1.01412000e+01 1.33495000e+01	N
atom  9.07587000e+00 9.90164000e+00 1.21484000e+01	N
atom  8.18534000e+00 8.37228000e+00 1.25251000e+01	Si
atom  6.49135000e+00 7.71230000e+00 1.26404000e+01	N
atom  5.92987000e+00 6.15569000e+00 1.32713000e+01	Si
atom  3.85982000e+00 3.18670000e+00 1.55111000e+01	Si
atom  3.38523000e+00 4.68333000e+00 1.47449000e+01	N
atom  3.55825000e+00 1.96450000e+00 1.43473000e+01	N
atom  -2.32788000e-01 6.39539000e-01 1.53478000e+01	Si
atom  -1.02074000e-01 5.29416000e+00 1.54112000e+01	Si
atom  6.91825000e-01 4.94085000e+00 1.38888000e+01	N
atom  5.65657000e+00 2.86274000e+00 1.53973000e+01	N
atom  7.06417000e+00 3.79422000e+00 1.52342000e+01	Si
atom  8.19706000e+00 2.86652000e+00 1.42858000e+01	N
atom  6.20121000e+00 1.35874000e+00 1.61644000e+01	Si
atom  5.78264000e+00 3.73103000e-01 1.47279000e+01	N
atom  3.35892000e+00 1.00962000e+01 1.50074000e+01	Si
atom  2.38165000e-01 7.04367000e+00 1.54702000e+01	N
atom  4.01526000e+00 6.03655000e+00 1.55853000e+01	Si
atom  1.71199000e+00 7.70882000e+00 1.52619000e+01	Si
atom  1.71811000e+00 9.46189000e+00 1.50928000e+01	N
atom  4.26037000e+00 9.13086000e+00 1.38044000e+01	N
atom  9.31292000e+00 6.50955000e+00 1.49240000e+01	Si
atom  8.79935000e+00 8.01259000e+00 1.41225000e+01	N
atom  7.96426000e+00 6.44971000e+00 1.61698000e+01	N
atom  5.34830000e+00 6.92473000e+00 1.47540000e+01	N
atom  6.70150000e+00 8.81062000e+00 1.56156000e+01	N
atom  8.43766000e+00 8.83318000e+00 1.56421000e+01	Si
atom  5.90472000e+00 8.58049000e+00 1.41114000e+01	Si
atom  6.25475000e+00 7.04054000e+00 1.63290000e+01	Si
atom  1.95059000e+00 4.02067000e+00 1.77724000e+01	Si
atom  3.66242000e-01 1.45264000e+00 1.82390000e+01	Si
atom  8.35796000e-01 8.75819000e-01 1.67060000e+01	N
atom  3.22393000e+00 2.96410000e+00 1.71487000e+01	N
atom  8.92405000e-01 4.63806000e+00 1.66552000e+01	N
atom  4.02411000e+00 2.00661000e+00 1.84476000e+01	Si
atom  2.99729000e+00 5.20746000e+00 1.84771000e+01	N
atom  5.08133000e+00 1.06264000e+00 1.74156000e+01	N
atom  8.17886000e+00 2.46366000e+00 1.77281000e+01	Si
atom  7.69044000e+00 3.90610000e+00 1.68800000e+01	N
atom  7.87363000e+00 1.15034000e+00 1.65992000e+01	N
atom  4.69086000e+00 5.01259000e+00 1.84945000e+01	Si
atom  2.52719000e+00 6.81142000e+00 1.80648000e+01	Si
atom  4.24935000e+00 9.83817000e+00 1.64502000e+01	N
atom  2.87254000e+00 7.05777000e+00 1.63840000e+01	N
atom  8.51856000e+00 5.35521000e+00 1.73906000e+01	Si
atom  9.07046000e+00 8.49852000e+00 1.72099000e+01	N
atom  5.11849000e+00 5.85025000e+00 1.69851000e+01	N
atom  7.98048000e+00 7.90526000e+00 1.84535000e+01	Si
atom  5.89263000e+00 9.61178000e+00 1.70319000e+01	Si
atom  6.29429000e+00 8.09411000e+00 1.79664000e+01	N
atom  3.60082000e-01 3.60927000e+00 2.03066000e+01	Si
atom  3.19825000e+00 1.63582000e+00 2.00090000e+01	N
atom  1.98102000e+00 4.15338000e-01 2.04184000e+01	Si
atom  9.27994000e-01 2.98644000e+00 1.88071000e+01	N
atom  7.54480000e+00 1.75322000e+00 1.91831000e+01	N
atom  8.51509000e+00 8.99997000e-01 2.03888000e+01	Si
atom  6.37872000e+00 2.77750000e+00 1.99490000e+01	Si
atom  5.11722000e+00 3.32394000e+00 1.88888000e+01	N
atom  7.30808000e+00 4.04493000e+00 2.06418000e+01	N
atom  3.99770000e-01 9.32640000e+00 2.02987000e+01	N
atom  1.29272000e-01 6.74564000e+00 1.98436000e+01	Si
atom  1.99134000e+00 8.72837000e+00 1.96942000e+01	Si
atom  3.50045000e+00 7.94793000e+00 1.90715000e+01	N
atom  1.04517000e+00 7.42565000e+00 1.86557000e+01	N
atom  2.07593000e+00 1.02490000e+01 1.86991000e+01	N
atom  4.62486000e+00 1.00866000e+01 2.04369000e+01	Si
atom  5.19077000e+00 7.68547000e+00 1.92939000e+01	Si
atom  7.21833000e+00 5.69105000e+00 2.03091000e+01	Si
atom  5.57196000e+00 8.61156000e+00 2.06615000e+01	N
atom  8.23457000e+00 8.52923000e+00 2.00968000e+01	N
atom  8.13099000e+00 6.22755000e+00 1.88442000e+01	N
atom  5.59264000e+00 6.02405000e+00 1.96685000e+01	N
atom  2.84071000e+00 2.47832000e+00 2.15619000e+01	Si
atom  1.79070000e+00 1.13514000e+00 2.20312000e+01	N
atom  4.12214000e+00 2.90261000e+00 2.26902000e+01	N
atom  1.82838000e+00 3.89415000e+00 2.12711000e+01	N
atom  5.72733000e+00 2.22738000e+00 2.27866000e+01	Si
atom  8.10793000e+00 3.47015000e+00 2.20644000e+01	Si
atom  8.62446000e+00 1.81591000e+00 2.17974000e+01	N
atom  9.28791000e+00 4.57155000e+00 2.25989000e+01	N
atom  5.82435000e+00 1.73157000e+00 2.11521000e+01	N
atom  6.97790000e+00 3.27609000e+00 2.32961000e+01	N
atom  1.97581000e+00 5.38519000e+00 2.20750000e+01	Si
atom  2.96137000e+00 9.12970000e+00 2.28170000e+01	Si
atom  6.78520000e-01 7.26425000e+00 2.26484000e+01	Si
atom  3.49158000e+00 5.72293000e+00 2.29513000e+01	N
atom  1.36904000e+00 6.76307000e+00 2.11487000e+01	N
atom  3.05883000e+00 9.52186000e+00 2.11488000e+01	N
atom  7.05853000e+00 9.11710000e+00 2.28494000e+01	N
atom  7.56586000e+00 6.54706000e+00 2.17196000e+01	N
atom  8.61391000e+00 6.13220000e+00 2.30933000e+01	Si
atom  8.45448000e+00 1.02277000e+01 2.28823000e+01	Si
atom  7.08444000e+00 8.26390000e+00 2.14002000e+01	Si
atom  4.01729000e+00 4.30717000e+00 2.38070000e+01	Si
atom  2.77273000e+00 4.01447000e+00 2.49393000e+01	N
atom  7.08869000e+00 4.05418000e+00 2.48159000e+01	Si
atom  5.42477000e+00 4.73397000e+00 2.47578000e+01	N
atom  6.12129000e+00 7.12835000e-01 2.34716000e+01	N
atom  1.27044000e+00 9.18947000e+00 2.47572000e+01	Si
atom  3.42985000e+00 7.04000000e+00 2.40522000e+01	Si
atom  1.89426000e+00 7.95055000e+00 2.35830000e+01	N
atom  4.48457000e+00 8.29162000e+00 2.34950000e+01	N
atom  -3.09909000e-01 1.01227000e+01 2.49062000e+01	N
atom  3.81891000e+00 6.75273000e+00 2.57223000e+01	N
atom  7.32534000e-01 5.62271000e+00 2.32282000e+01	N
atom  9.12859000e+00 1.00102000e+01 2.44435000e+01	N
atom  5.75335000e+00 9.27753000e+00 2.39116000e+01	Si
atom  8.07230000e+00 5.61059000e+00 2.47100000e+01	N
atom  2.95720000e+00 3.64736000e+00 2.65973000e+01	Si
atom  2.86716000e+00 1.94128000e+00 2.66477000e+01	N
atom  1.35304000e+00 1.17911000e+00 2.64147000e+01	Si
atom  1.54881000e+00 4.03347000e+00 2.75407000e+01	N
atom  -1.14841000e-02 3.68159000e+00 2.68915000e+01	Si
atom  4.33483000e+00 4.58849000e+00 2.71785000e+01	N
atom  4.01651000e+00 7.06799000e-01 2.69400000e+01	Si
atom  5.96078000e-01 5.44565000e-01 2.78286000e+01	N
atom  1.40502000e-01 2.35076000e+00 2.58124000e+01	N
atom  7.61651000e+00 3.05789000e+00 2.62372000e+01	N
atom  7.02711000e+00 1.44855000e+00 2.66750000e+01	Si
atom  8.95604000e+00 3.57030000e+00 2.72012000e+01	Si
atom  5.45345000e+00 8.01873000e-01 2.60581000e+01	N
atom  8.19984000e+00 3.14186000e-01 2.61795000e+01	N
atom  9.44174000e+00 5.35633000e+00 2.71099000e+01	N
atom  1.91714000e+00 8.72532000e+00 2.63464000e+01	N
atom  3.09705000e+00 7.65083000e+00 2.70487000e+01	Si
atom  2.35616000e+00 1.02023000e+01 2.71655000e+01	Si
atom  4.63305000e+00 8.47860000e+00 2.76864000e+01	N
atom  5.12026000e+00 5.68320000e+00 2.61635000e+01	Si
atom  8.67685000e+00 9.02575000e+00 2.76312000e+01	Si
atom  6.20437000e+00 8.22606000e+00 2.70477000e+01	Si
atom  8.80087000e+00 7.93815000e+00 2.62785000e+01	N
atom  6.51587000e+00 6.55192000e+00 2.67597000e+01	N
atom  8.21591000e+00 6.20378000e+00 2.63025000e+01	Si
atom  6.20674000e+00 9.27516000e+00 2.56160000e+01	N
atom  1.78923000e+00 3.73478000e+00 2.92569000e+01	Si
atom  3.52439000e+00 3.72622000e+00 2.95904000e+01	N
atom  1.07968000e+00 2.34082000e+00 2.98822000e+01	N
atom  3.88319000e+00 5.24248000e+00 2.87316000e+01	Si
atom  1.30528000e+00 5.07346000e+00 3.02554000e+01	N
atom  -3.34449000e-01 1.57555000e+00 2.91275000e+01	Si
atom  8.64781000e+00 3.27890000e+00 2.89710000e+01	N
atom  8.48767000e+00 1.56875000e+00 2.92321000e+01	Si
atom  6.98738000e+00 1.23898000e+00 2.84235000e+01	N
atom  5.76579000e+00 5.69286000e-01 2.95276000e+01	Si
atom  1.29647000e+00 9.39774000e+00 3.00731000e+01	Si
atom  2.46958000e+00 9.42935000e+00 2.87554000e+01	N
atom  4.21405000e+00 9.53513000e+00 2.89493000e+01	Si
atom  1.87545000e+00 6.66216000e+00 2.99297000e+01	Si
atom  2.80009000e+00 6.60067000e+00 2.84184000e+01	N
atom  5.41011000e-01 7.80517000e+00 2.99949000e+01	N
atom  5.00665000e+00 6.05119000e+00 2.97660000e+01	N
atom  7.19036000e+00 8.74969000e+00 2.84809000e+01	N
atom  7.09767000e+00 9.02505000e+00 3.02492000e+01	Si
atom  1.19672000e+00 2.11891000e+00 3.16071000e+01	Si
atom  2.82616000e+00 2.58077000e+00 3.19216000e+01	N
atom  2.45006000e-01 4.90565000e+00 3.16076000e+01	Si
atom  4.18865000e+00 2.87248000e+00 3.09363000e+01	Si
atom  1.81329000e-01 9.13523000e-01 3.23276000e+01	N
atom  2.53464000e-01 3.39305000e+00 3.24866000e+01	N
atom  5.02915000e+00 1.27571000e+00 3.09599000e+01	N
atom  5.45414000e+00 3.85251000e+00 3.17848000e+01	N
atom  8.19979000e+00 7.79369000e-01 3.08633000e+01	N
atom  9.33448000e+00 3.12470000e+00 3.14525000e+01	N
atom  9.01851000e+00 4.33646000e+00 3.02638000e+01	Si
atom  2.97017000e+00 7.11169000e+00 3.12637000e+01	N
atom  4.66442000e+00 7.40296000e+00 3.08594000e+01	Si
atom  8.65045000e+00 6.66357000e+00 3.14892000e+01	Si
atom  5.18748000e+00 8.93990000e+00 3.04083000e+01	N
atom  7.63436000e+00 5.34813000e+00 3.07709000e+01	N
atom  5.90510000e+00 5.30810000e+00 3.09699000e+01	Si
atom  5.26390000e+00 1.00706000e+01 3.18960000e+01	Si
atom  5.70597000e+00 6.75851000e+00 3.20131000e+01	N
atom  8.54607000e+00 8.19063000e+00 3.07035000e+01	N
atom  6.98765000e+00 1.01435000e+01 3.17346000e+01	N
atom  3.17058000e+00 2.22057000e+00 3.35432000e+01	Si
atom  1.65041000e+00 2.30501000e+00 3.44082000e+01	N
atom  3.57085000e+00 5.39339000e-01 3.34854000e+01	N
atom  4.65822000e-01 5.03837000e+00 3.44274000e+01	Si
atom  4.56386000e+00 2.95961000e+00 3.41575000e+01	N
atom  -2.56508000e-01 2.35747000e+00 3.38485000e+01	Si
atom  -5.15219000e-01 9.62423000e-01 3.49515000e+01	N
atom  7.08445000e+00 2.31951000e+00 3.38286000e+01	N
atom  5.94842000e+00 3.61982000e+00 3.34302000e+01	Si
atom  8.70592000e+00 2.44920000e+00 3.43752000e+01	Si
atom  6.52763000e+00 6.86777000e-01 3.43883000e+01	Si
atom  6.30362000e+00 5.16774000e+00 3.41216000e+01	N
atom  9.45094000e+00 3.98029000e+00 3.39908000e+01	N
atom  9.54061000e+00 1.24729000e+00 3.34006000e+01	N
atom  3.33135000e+00 7.10762000e+00 3.41811000e+01	N
atom  4.22390000e+00 9.47375000e+00 3.32189000e+01	N
atom  1.07802000e+00 5.79992000e+00 3.29843000e+01	N
atom  4.35901000e+00 8.42969000e+00 3.45985000e+01	Si
atom  1.36548000e+00 8.61930000e+00 3.29056000e+01	N
atom  2.16696000e+00 7.09143000e+00 3.28577000e+01	Si
atom  2.53811000e+00 9.95747000e+00 3.28223000e+01	Si
atom  -3.29806000e-01 9.25715000e+00 3.48435000e+01	N
atom  -2.84423000e-01 9.04069000e+00 3.31843000e+01	Si
atom  9.42084000e+00 7.56078000e+00 3.43838000e+01	Si
atom  5.99601000e+00 8.04689000e+00 3.45324000e+01	N
atom  6.58313000e+00 6.75851000e+00 3.34436000e+01	Si
atom  8.27068000e+00 6.95581000e+00 3.31377000e+01	N
atom  9.54571000e+00 1.00591000e+01 3.30512000e+01	N
atom  1.94459000e+00 3.14735000e+00 3.58916000e+01	Si
atom  3.49950000e+00 2.97009000e+00 3.67154000e+01	N
atom  3.12257000e-01 1.01095000e+00 3.64992000e+01	Si
atom  7.07255000e-01 2.64615000e+00 3.69331000e+01	N
atom  1.86784000e+00 4.76779000e+00 3.53660000e+01	N
atom  4.91436000e+00 2.54253000e+00 3.58866000e+01	Si
atom  5.56707000e+00 9.49019000e-01 3.59696000e+01	N
atom  6.17836000e+00 3.66518000e+00 3.62500000e+01	N
atom  9.04114000e+00 1.84537000e+00 3.59710000e+01	N
atom  5.91978000e+00 5.36696000e+00 3.57963000e+01	Si
atom  4.24398000e+00 5.69248000e+00 3.63911000e+01	N
atom  2.88077000e+00 6.18701000e+00 3.55694000e+01	Si
atom  4.13870000e+00 9.30870000e+00 3.61539000e+01	N
atom  2.02828000e+00 7.26898000e+00 3.66685000e+01	N
atom  2.61941000e+00 8.90939000e+00 3.70106000e+01	Si
atom  1.41165000e+00 1.01345000e+01 3.68202000e+01	N
atom  7.01466000e+00 5.94593000e+00 3.69631000e+01	N
atom  7.07473000e+00 9.29371000e+00 3.52007000e+01	Si
atom  8.80111000e+00 8.95914000e+00 3.53517000e+01	N
atom  6.75022000e+00 9.41380000e+00 3.68722000e+01	N
atom  3.86787000e+00 4.44437000e+00 3.76598000e+01	Si
atom  2.58943000e+00 5.13204000e+00 3.85853000e+01	N
atom  -5.84145000e-02 5.16595000e+00 3.77632000e+01	N
atom  -3.44467000e-01 3.47988000e+00 3.81099000e+01	Si
atom  5.37150000e+00 4.38782000e+00 3.85761000e+01	N
atom  8.41659000e+00 3.66167000e+00 3.80871000e+01	N
atom  6.87239000e+00 4.33938000e+00 3.76432000e+01	Si
atom  4.35311000e+00 9.43957000e+00 3.94947000e+01	Si
atom  1.03906000e+00 7.31804000e+00 3.92231000e+01	N
atom  1.37607000e+00 6.24338000e+00 3.79830000e+01	Si
atom  3.05141000e+00 8.80570000e+00 3.86569000e+01	N
atom  8.08981000e+00 9.91872000e+00 3.90876000e+01	N
atom  8.50514000e+00 9.31618000e+00 3.73851000e+01	Si
atom  3.79445000e+00 1.23017000e+01 8.70388000e-01	N
atom  2.58024000e+00 1.10777000e+01 1.37977000e+00	Si
atom  -8.71151000e-02 1.50662000e+01 1.29278000e+00	Si
atom  1.59662000e+00 1.07279000e+01 -8.11629000e-02	N
atom  3.62908000e-03 1.36411000e+01 2.20948000e+00	N
atom  4.77039000e+00 1.47239000e+01 1.17547000e+00	N
atom  7.81214000e+00 1.25604000e+01 1.24324000e+00	Si
atom  8.03567000e+00 1.42655000e+01 1.50333000e+00	N
atom  4.77801000e+00 1.31601000e+01 1.98969000e+00	Si
atom  9.00631000e+00 1.43132000e+01 4.23127000e-02	Si
atom  6.23584000e+00 1.22776000e+01 1.91671000e+00	N
atom  2.56256000e+00 1.83049000e+01 1.49717000e+00	N
atom  1.52562000e+00 1.57869000e+01 9.85763000e-01	N
atom  2.11671000e+00 1.89445000e+01 -7.04095000e-02	Si
atom  6.72659000e+00 1.79359000e+01 3.46364000e-01	Si
atom  6.92073000e+00 1.97426000e+01 1.36335000e+00	N
atom  8.26628000e+00 1.75213000e+01 1.11721000e+00	N
atom  5.68115000e+00 1.74406000e+01 1.77206000e+00	N
atom  1.41512000e+00 1.11118000e+01 2.57583000e+00	N
atom  4.19895000e+00 1.32992000e+01 3.69209000e+00	N
atom  -2.17909000e-01 1.19970000e+01 2.70733000e+00	Si
atom  3.54026000e+00 1.46763000e+01 4.54104000e+00	Si
atom  4.75149000e+00 1.05575000e+01 3.27442000e+00	N
atom  7.68524000e+00 1.48142000e+01 3.16225000e+00	Si
atom  8.49597000e+00 1.19939000e+01 3.93701000e+00	Si
atom  8.76678000e+00 1.15052000e+01 2.28057000e+00	N
atom  6.41829000e+00 1.07589000e+01 2.79523000e+00	Si
atom  7.95329000e+00 1.35550000e+01 4.29239000e+00	N
atom  7.30274000e+00 1.07640000e+01 4.31655000e+00	N
atom  9.91100000e-01 1.71244000e+01 3.57828000e+00	N
atom  3.46764000e+00 1.59059000e+01 3.15590000e+00	N
atom  3.07952000e+00 1.94142000e+01 2.73063000e+00	Si
atom  2.99461000e+00 1.86986000e+01 4.29677000e+00	N
atom  2.18995000e+00 1.67364000e+01 2.28860000e+00	Si
atom  4.90582000e+00 1.96158000e+01 3.07128000e+00	N
atom  6.10012000e+00 1.52847000e+01 3.56816000e+00	N
atom  6.48587000e+00 1.86299000e+01 2.87774000e+00	Si
atom  8.91612000e+00 1.74568000e+01 2.75987000e+00	Si
atom  8.91843000e+00 1.59752000e+01 3.57062000e+00	N
atom  5.01107000e+00 1.59695000e+01 2.37020000e+00	Si
atom  8.06854000e+00 1.87070000e+01 3.60149000e+00	N
atom  4.61489000e-01 1.24605000e+01 6.33854000e+00	N
atom  2.09909000e+00 1.28014000e+01 6.01927000e+00	Si
atom  2.05121000e+00 1.44381000e+01 5.32221000e+00	N
atom  2.60145000e+00 1.14956000e+01 5.00942000e+00	N
atom  4.27161000e+00 1.16738000e+01 4.54183000e+00	Si
atom  7.64107000e+00 1.39481000e+01 5.95451000e+00	Si
atom  5.16000000e+00 1.10102000e+01 5.89083000e+00	N
atom  9.21413000e+00 1.36411000e+01 6.65515000e+00	N
atom  4.47316000e+00 1.54144000e+01 5.83185000e+00	N
atom  7.79675000e-01 1.54965000e+01 5.91771000e+00	Si
atom  1.27851000e+00 1.71349000e+01 6.29217000e+00	N
atom  1.46916000e+00 1.81695000e+01 4.90295000e+00	Si
atom  6.72634000e-01 1.96320000e+01 4.74114000e+00	N
atom  9.35648000e+00 1.86910000e+01 6.13645000e+00	N
atom  4.79691000e+00 1.95649000e+01 6.30183000e+00	N
atom  7.20792000e+00 1.56221000e+01 6.19330000e+00	N
atom  4.64453000e+00 1.88530000e+01 4.74918000e+00	Si
atom  5.99161000e+00 1.60807000e+01 5.14612000e+00	Si
atom  9.03242000e+00 1.96305000e+01 4.69324000e+00	Si
atom  5.85466000e+00 1.76837000e+01 4.46542000e+00	N
atom  2.92782000e+00 1.34539000e+01 8.74467000e+00	Si
atom  1.32449000e+00 1.28131000e+01 9.02668000e+00	N
atom  4.45559000e-01 1.47813000e+01 7.51011000e+00	N
atom  6.25652000e-03 1.31408000e+01 7.95305000e+00	Si
atom  3.40748000e+00 1.27953000e+01 7.22829000e+00	N
atom  2.87920000e+00 1.51334000e+01 8.46012000e+00	N
atom  4.83088000e-01 1.03662000e+01 8.09073000e+00	N
atom  5.09828000e+00 1.20701000e+01 7.28365000e+00	Si
atom  5.35215000e+00 1.15956000e+01 8.93022000e+00	N
atom  6.30593000e+00 1.31623000e+01 6.73705000e+00	N
atom  1.04759000e+00 1.53591000e+01 9.12427000e+00	Si
atom  2.25329000e+00 1.94062000e+01 8.22625000e+00	N
atom  2.09395000e+00 1.77083000e+01 7.71123000e+00	Si
atom  3.84596000e+00 1.73770000e+01 7.61155000e+00	N
atom  9.86152000e-01 1.71298000e+01 8.98983000e+00	N
atom  4.26868000e+00 1.56952000e+01 7.54418000e+00	Si
atom  7.19178000e-01 2.01168000e+01 8.44737000e+00	Si
atom  5.15628000e+00 1.85671000e+01 7.68571000e+00	Si
atom  6.78230000e+00 1.79185000e+01 7.62962000e+00	N
atom  5.68536000e+00 1.56800000e+01 8.67587000e+00	N
atom  9.14025000e+00 1.86165000e+01 9.01682000e+00	N
atom  8.77933000e+00 1.58040000e+01 8.51111000e+00	N
atom  5.10706000e+00 1.96680000e+01 9.04369000e+00	N
atom  7.19405000e+00 1.62736000e+01 7.81378000e+00	Si
atom  8.20282000e+00 1.89266000e+01 7.46681000e+00	Si
atom  3.73211000e+00 1.32931000e+01 1.02503000e+01	N
atom  1.98251000e-01 1.08670000e+01 1.06987000e+01	N
atom  4.19574000e+00 1.16819000e+01 1.03142000e+01	Si
atom  3.20825000e+00 1.45064000e+01 1.13333000e+01	Si
atom  1.55747000e+00 1.50322000e+01 1.09629000e+01	N
atom  2.88283000e+00 1.05551000e+01 9.79111000e+00	N
atom  1.27456000e+00 1.11428000e+01 9.46338000e+00	Si
atom  8.04205000e+00 1.34089000e+01 1.06822000e+01	Si
atom  7.42061000e+00 1.17963000e+01 1.09152000e+01	N
atom  6.60778000e+00 1.43414000e+01 1.09977000e+01	N
atom  9.07528000e+00 1.11608000e+01 1.08865000e+01	Si
atom  9.18073000e+00 1.29959000e+01 9.42299000e+00	N
atom  9.07193000e+00 1.46923000e+01 1.13816000e+01	N
atom  6.82077000e+00 1.06965000e+01 9.21535000e+00	Si
atom  4.21737000e+00 1.58529000e+01 1.13116000e+01	N
atom  4.31755000e-01 2.00683000e+01 1.01828000e+01	N
atom  6.84980000e+00 1.67808000e+01 1.12357000e+01	N
atom  5.69569000e+00 1.57205000e+01 1.04380000e+01	Si
atom  9.15434000e+00 1.98779000e+01 1.03070000e+01	Si
atom  3.24384000e+00 1.37891000e+01 1.29449000e+01	N
atom  4.31437000e+00 1.25405000e+01 1.34180000e+01	Si
atom  -3.14498000e-02 1.10578000e+01 1.34681000e+01	N
atom  5.54610000e-01 1.41989000e+01 1.33338000e+01	N
atom  2.06261000e+00 1.47343000e+01 1.39411000e+01	Si
atom  -4.05552000e-01 1.28054000e+01 1.33492000e+01	Si
atom  -1.16045000e-01 1.47591000e+01 1.15974000e+01	Si
atom  4.64276000e+00 1.14716000e+01 1.20189000e+01	N
atom  8.56542000e+00 1.24408000e+01 1.34800000e+01	N
atom  6.26727000e+00 1.08283000e+01 1.18456000e+01	Si
atom  8.39029000e+00 1.07745000e+01 1.36722000e+01	Si
atom  7.70791000e+00 1.50608000e+01 1.37987000e+01	N
atom  4.13021000e+00 1.67638000e+01 1.27978000e+01	Si
atom  2.58906000e+00 1.63090000e+01 1.34343000e+01	N
atom  3.91557000e+00 1.99945000e+01 1.18986000e+01	Si
atom  4.48296000e+00 1.83673000e+01 1.21360000e+01	N
atom  2.34527000e+00 2.02017000e+01 1.26536000e+01	N
atom  9.10111000e+00 1.85411000e+01 1.31169000e+01	Si
atom  7.65522000e+00 1.54322000e+01 1.20641000e+01	Si
atom  7.46841000e+00 1.89614000e+01 1.28258000e+01	N
atom  5.59280000e+00 1.68434000e+01 1.37100000e+01	N
atom  6.19969000e+00 1.78615000e+01 1.23967000e+01	Si
atom  3.22354000e+00 1.17306000e+01 1.46201000e+01	N
atom  2.26866000e+00 1.43693000e+01 1.56008000e+01	N
atom  2.40908000e+00 1.26543000e+01 1.58548000e+01	Si
atom  8.13404000e-01 1.18883000e+01 1.60691000e+01	N
atom  1.78029000e-01 1.04592000e+01 1.51724000e+01	Si
atom  7.40567000e+00 1.34432000e+01 1.42717000e+01	Si
atom  7.71923000e+00 1.30599000e+01 1.59851000e+01	N
atom  8.99688000e+00 1.04694000e+01 1.52891000e+01	N
atom  9.49911000e+00 1.51429000e+01 1.60070000e+01	N
atom  5.84603000e+00 1.30199000e+01 1.37763000e+01	N
atom  6.60324000e+00 1.53780000e+01 1.63058000e+01	N
atom  3.34981000e+00 2.00124000e+01 1.55028000e+01	N
atom  8.22535000e-01 1.93553000e+01 1.48041000e+01	N
atom  6.89359000e-03 1.65809000e+01 1.53135000e+01	N
atom  8.79644000e-01 1.80000000e+01 1.58237000e+01	Si
atom  9.63654000e+00 1.95005000e+01 1.45209000e+01	N
atom  8.14154000e+00 1.74030000e+01 1.53333000e+01	N
atom  9.18983000e+00 1.59599000e+01 1.44723000e+01	Si
atom  9.33314000e+00 1.84512000e+01 1.59280000e+01	Si
atom  6.46982000e+00 1.68105000e+01 1.52105000e+01	Si
atom  3.14113000e+00 1.23780000e+01 1.74231000e+01	N
atom  3.45123000e+00 1.06732000e+01 1.78186000e+01	Si
atom  3.89357000e+00 1.36467000e+01 1.83572000e+01	Si
atom  3.74666000e+00 1.52390000e+01 1.75561000e+01	N
atom  7.02204000e+00 1.08654000e+01 1.72560000e+01	N
atom  8.05229000e+00 1.45301000e+01 1.68373000e+01	Si
atom  8.44390000e+00 1.16108000e+01 1.65757000e+01	Si
atom  8.32425000e+00 1.44237000e+01 1.86006000e+01	N
atom  5.64241000e+00 1.34349000e+01 1.85143000e+01	N
atom  9.62312000e+00 1.21291000e+01 1.77234000e+01	N
atom  6.26020000e+00 1.17740000e+01 1.85987000e+01	Si
atom  -1.85652000e-02 1.87012000e+01 1.71556000e+01	N
atom  2.26071000e+00 1.56965000e+01 1.67679000e+01	Si
atom  3.89049000e+00 1.94489000e+01 1.79191000e+01	N
atom  7.72238000e-01 1.58143000e+01 1.78678000e+01	N
atom  3.75489000e+00 1.85090000e+01 1.64968000e+01	Si
atom  2.50613000e+00 1.73654000e+01 1.62423000e+01	N
atom  9.49236000e+00 1.95618000e+01 1.73326000e+01	N
atom  9.44352000e+00 1.69346000e+01 1.80904000e+01	N
atom  5.29574000e+00 1.60361000e+01 1.72720000e+01	Si
atom  5.23478000e+00 1.75428000e+01 1.63399000e+01	N
atom  3.35403000e+00 1.38155000e+01 2.00796000e+01	N
atom  7.54777000e-01 1.09382000e+01 1.96342000e+01	Si
atom  1.13833000e+00 1.22299000e+01 2.07465000e+01	N
atom  -4.82355000e-01 1.45596000e+01 2.02503000e+01	N
atom  4.91757000e+00 1.06876000e+01 1.88384000e+01	N
atom  9.13677000e+00 1.29723000e+01 1.94024000e+01	Si
atom  7.60089000e+00 1.20684000e+01 1.96489000e+01	N
atom  6.73305000e+00 1.45718000e+01 1.93467000e+01	Si
atom  6.67371000e+00 1.41134000e+01 2.09808000e+01	N
atom  2.97639000e+00 1.53927000e+01 2.07470000e+01	Si
atom  1.57159000e+00 1.64015000e+01 2.06033000e+01	N
atom  4.06019000e+00 1.96406000e+01 1.95742000e+01	Si
atom  2.32840000e-01 1.60372000e+01 1.95818000e+01	Si
atom  2.82585000e+00 1.91176000e+01 2.07368000e+01	N
atom  8.53170000e+00 1.89344000e+01 1.99767000e+01	N
atom  5.80923000e+00 1.71607000e+01 2.01637000e+01	Si
atom  5.58416000e+00 1.88265000e+01 1.99698000e+01	N
atom  6.07179000e+00 1.61187000e+01 1.88155000e+01	N
atom  7.01748000e+00 1.98422000e+01 1.99107000e+01	Si
atom  2.24948000e+00 1.45613000e+01 2.21026000e+01	N
atom  2.57434000e+00 1.29307000e+01 2.13526000e+01	Si
atom  3.35131000e+00 1.25289000e+01 2.28953000e+01	N
atom  -2.02017000e-02 1.29001000e+01 2.30702000e+01	N
atom  -2.73623000e-01 1.31194000e+01 2.13205000e+01	Si
atom  7.94086000e+00 1.18564000e+01 2.24177000e+01	N
atom  5.41378000e+00 1.13871000e+01 2.14294000e+01	N
atom  5.06974000e+00 1.21718000e+01 2.29316000e+01	Si
atom  6.89309000e+00 1.23913000e+01 2.11615000e+01	Si