lattice_vector  3.98995208e+01 0.00000000e+00 0.00000000e+00
lattice_vector  2.44314102e-15 3.98995208e+01 0.00000000e+00
lattice_vector  2.44314102e-15 2.44314102e-15 3.98995208e+01
atom  2.16987000e+00 3.73164000e+00 1.33295000e+00	N
atom  3.75705000e+00 4.04007000e+00 1.71930000e+00	Si
atom  7.08032000e-01 7.93060000e-01 6.28274000e-01	N
atom  4.76364000e+00 2.81681000e+00 9.05027000e-01	N
atom  6.42972000e+00 2.15361000e+00 1.22857000e+00	Si
atom  7.92239000e+00 2.78740000e+00 5.08496000e-01	N
atom  9.22088000e+00 3.95417000e+00 4.09051000e-01	Si
atom  6.48513000e+00 7.32633000e-01 2.01289000e-01	N
atom  3.54202000e+00 9.22468000e+00 1.14820000e+00	Si
atom  3.27711000e-01 6.22295000e+00 6.57584000e-01	N
atom  2.48378000e-01 8.71159000e+00 2.81887000e-01	N
atom  2.89532000e+00 7.87298000e+00 2.46160000e-01	N
atom  8.87033000e-01 1.01720000e+01 1.04210000e+00	Si
atom  2.15256000e+00 9.70623000e+00 2.15460000e+00	N
atom  4.42927000e+00 5.67724000e+00 1.33342000e+00	N
atom  6.83346000e+00 1.01460000e+01 1.37899000e+00	N
atom  6.90577000e+00 7.38407000e+00 9.48202000e-01	N
atom  8.77955000e+00 5.60725000e+00 2.14274000e-01	N
atom  7.89424000e+00 6.16705000e+00 1.58127000e+00	Si
atom  6.49291000e+00 8.62522000e+00 2.17562000e+00	Si
atom  3.88648000e+00 4.53640000e+00 3.44975000e+00	N
atom  1.59928000e+00 1.86599000e+00 3.63872000e+00	N
atom  1.14608000e+00 3.44372000e+00 2.81322000e+00	Si
atom  1.24668000e+00 4.80078000e+00 3.91892000e+00	N
atom  -4.23522000e-01 5.10444000e+00 3.97535000e+00	Si
atom  4.09807000e+00 1.71183000e+00 4.50357000e+00	N
atom  7.84546000e+00 8.69249000e-01 3.56174000e+00	Si
atom  6.98583000e+00 3.58485000e+00 3.66401000e+00	Si
atom  6.54531000e+00 1.96199000e+00 2.92499000e+00	N
atom  5.52451000e+00 8.95579000e-01 3.92952000e+00	Si
atom  8.58727000e+00 3.79034000e+00 4.19113000e+00	N
atom  6.82867000e+00 5.00713000e+00 2.50586000e+00	N
atom  9.24455000e+00 1.57314000e+00 2.77511000e+00	N
atom  2.64083000e+00 5.72860000e+00 4.05325000e+00	Si
atom  2.73807000e+00 7.35015000e+00 3.42727000e+00	N
atom  1.53729000e+00 8.57282000e+00 3.30563000e+00	Si
atom  -9.51954000e-02 8.10694000e+00 2.83273000e+00	N
atom  4.26295000e+00 8.10716000e+00 3.78067000e+00	Si
atom  9.32982000e+00 6.79697000e+00 2.40340000e+00	N
atom  9.41460000e+00 8.35551000e+00 3.13847000e+00	Si
atom  5.50865000e+00 6.90855000e+00 4.08604000e+00	N
atom  5.27156000e+00 5.60773000e+00 2.97888000e+00	Si
atom  7.63093000e+00 8.49747000e+00 3.54354000e+00	N
atom  4.81904000e+00 8.74195000e+00 2.31234000e+00	N
atom  3.23028000e+00 3.74776000e+00 5.93249000e+00	N
atom  2.49148000e+00 1.28466000e+00 5.07852000e+00	Si
atom  2.04527000e+00 1.56760000e+00 6.72970000e+00	N
atom  4.32905000e+00 3.36463000e+00 4.63904000e+00	Si
atom  6.95929000e+00 7.46683000e-01 5.04949000e+00	N
atom  9.05713000e+00 3.94949000e+00 5.89964000e+00	Si
atom  6.50648000e+00 5.12995000e+00 6.19108000e+00	Si
atom  5.89890000e+00 4.04687000e+00 4.98150000e+00	N
atom  3.62035000e+00 5.27146000e+00 6.74364000e+00	Si
atom  2.94094000e+00 6.47746000e+00 5.70511000e+00	N
atom  2.78852000e+00 8.20718000e+00 5.87964000e+00	Si
atom  1.56248000e+00 9.06545000e+00 5.01662000e+00	N
atom  3.25391000e-01 9.96461000e+00 5.92440000e+00	Si
atom  4.30361000e+00 8.90437000e+00 5.32523000e+00	N
atom  9.03357000e+00 6.61539000e+00 6.79058000e+00	Si
atom  6.77848000e+00 7.79042000e+00 4.90604000e+00	Si
atom  6.90426000e+00 9.04778000e+00 6.15228000e+00	N
atom  8.41338000e+00 9.63499000e+00 6.61328000e+00	Si
atom  5.45782000e+00 1.00127000e+01 6.11298000e+00	Si
atom  7.50890000e+00 6.53274000e+00 5.91637000e+00	N
atom  3.87147000e-01 3.44414000e+00 7.56196000e+00	N
atom  4.96606000e-01 5.64334000e-01 8.92942000e+00	N
atom  -1.36581000e-01 5.06956000e+00 7.94805000e+00	Si
atom  2.60729000e+00 4.86526000e+00 8.07364000e+00	N
atom  1.99535000e+00 3.29687000e+00 7.03960000e+00	Si
atom  -3.00259000e-01 2.06559000e+00 8.31283000e+00	Si
atom  3.61529000e+00 2.76484000e-01 8.68958000e+00	N
atom  2.10611000e+00 3.54419000e-01 7.94293000e+00	Si
atom  8.13887000e+00 1.88411000e+00 8.41453000e+00	N
atom  8.48011000e+00 3.56845000e+00 8.51956000e+00	Si
atom  6.92749000e+00 9.07428000e-01 9.12949000e+00	Si
atom  9.41373000e+00 1.23568000e+00 7.42145000e+00	Si
atom  7.77594000e+00 4.26533000e+00 7.04888000e+00	N
atom  4.42517000e+00 1.03535000e+01 7.45433000e+00	N
atom  1.55940000e-01 6.54783000e+00 7.15731000e+00	N
atom  8.39971000e-01 7.94860000e+00 7.93001000e+00	Si
atom  2.52366000e+00 8.37637000e+00 7.62815000e+00	N
atom  -3.71195000e-02 9.33923000e+00 7.46899000e+00	N
atom  3.67396000e+00 9.16520000e+00 8.59109000e+00	Si
atom  8.78631000e+00 9.95765000e+00 8.34949000e+00	N
atom  9.15081000e+00 6.53198000e+00 8.48062000e+00	N
atom  5.23313000e+00 5.68516000e+00 7.24233000e+00	N
atom  5.35728000e+00 6.24450000e+00 8.88462000e+00	Si
atom  4.60934000e+00 7.84807000e+00 9.28854000e+00	N
atom  4.06134000e+00 1.62027000e+00 9.80858000e+00	Si
atom  3.04068000e+00 4.53323000e+00 9.67577000e+00	Si
atom  2.82700000e+00 2.84931000e+00 9.93003000e+00	N
atom  -2.73535000e-01 1.01176000e+00 1.06042000e+01	Si
atom  2.48067000e+00 2.34445000e+00 1.15589000e+01	Si
atom  3.85836000e+00 1.26925000e+00 1.15580000e+01	N
atom  -3.89581000e-01 4.96799000e+00 9.66197000e+00	N
atom  4.79235000e+00 4.78289000e+00 9.75336000e+00	N
atom  5.99946000e+00 3.64450000e+00 1.02486000e+01	Si
atom  7.64548000e+00 4.30040000e+00 9.84843000e+00	N
atom  5.70691000e+00 2.05614000e+00 9.56610000e+00	N
atom  9.34278000e+00 2.29427000e+00 1.08384000e+01	N
atom  8.81861000e+00 7.62836000e-01 1.15531000e+01	Si
atom  2.17388000e+00 5.38095000e+00 1.07944000e+01	N
atom  5.45575000e-01 1.03050000e+01 1.06789000e+01	N
atom  5.04186000e-01 7.62985000e+00 9.65541000e+00	N
atom  5.97593000e-01 6.07383000e+00 1.04958000e+01	Si
atom  3.40513000e+00 1.02930000e+01 9.92688000e+00	N
atom  -4.85346000e-01 8.92758000e+00 1.03489000e+01	Si
atom  5.99681000e+00 8.14145000e+00 1.03589000e+01	Si
atom  8.29317000e+00 5.96587000e+00 9.85750000e+00	Si
atom  6.82399000e+00 6.79753000e+00 9.62185000e+00	N
atom  6.22416000e+00 9.84819000e+00 1.00573000e+01	N
atom  5.70362000e-02 2.36771000e+00 1.33208000e+01	Si
atom  2.53382000e+00 3.56412000e+00 1.26773000e+01	N
atom  4.47020000e+00 8.26985000e-01 1.30887000e+01	Si
atom  -9.06136000e-02 3.99438000e+00 1.38255000e+01	N
atom  8.40847000e-01 1.69866000e+00 1.18610000e+01	N
atom  4.75749000e+00 5.00455000e+00 1.31749000e+01	N
atom  5.76640000e+00 3.58789000e+00 1.34476000e+01	Si
atom  8.13069000e+00 1.72855000e+00 1.28852000e+01	N
atom  8.74506000e+00 4.49019000e+00 1.27621000e+01	N
atom  6.39966000e+00 3.34136000e+00 1.18932000e+01	N
atom  8.13504000e+00 3.17722000e+00 1.18623000e+01	Si
atom  5.20695000e+00 2.00693000e+00 1.40105000e+01	N
atom  3.10070000e+00 5.31704000e+00 1.23789000e+01	Si
atom  1.70833000e+00 8.58875000e+00 1.27665000e+01	N
atom  3.47641000e-01 7.53846000e+00 1.30314000e+01	Si
atom  3.38084000e+00 8.36270000e+00 1.25767000e+01	Si
atom  -4.99794000e-02 6.12758000e+00 1.20921000e+01	N
atom  4.22888000e+00 9.88464000e+00 1.23975000e+01	N
atom  8.24427000e-01 1.00745000e+01 1.24358000e+01	Si
atom  2.14762000e+00 6.02134000e+00 1.38094000e+01	N
atom  3.86479000e+00 6.89491000e+00 1.18571000e+01	N
atom  6.45601000e+00 7.65327000e+00 1.19426000e+01	N
atom  8.90907000e+00 6.85195000e+00 1.33936000e+01	N
atom  5.31667000e+00 6.68626000e+00 1.29909000e+01	Si
atom  7.49928000e+00 8.06870000e+00 1.32183000e+01	Si
atom  8.90782000e+00 9.14059000e+00 1.26920000e+01	N
atom  7.58098000e-01 1.58183000e+00 1.46511000e+01	N
atom  2.34318000e+00 3.76548000e+00 1.56364000e+01	N
atom  1.27200000e+00 4.69987000e+00 1.47282000e+01	Si
atom  1.35102000e+00 2.42473000e+00 1.60851000e+01	Si
atom  5.75563000e+00 1.56279000e+00 1.55888000e+01	Si
atom  7.45143000e+00 1.12534000e+00 1.55136000e+01	N
atom  6.91317000e+00 4.13006000e+00 1.47173000e+01	N
atom  8.46925000e+00 7.14438000e-01 1.42081000e+01	Si
atom  4.95980000e-01 5.52762000e+00 1.60855000e+01	N
atom  3.79707000e-01 7.27324000e+00 1.61380000e+01	Si
atom  4.13593000e+00 5.91085000e+00 1.59330000e+01	N
atom  3.10485000e+00 6.89217000e+00 1.50459000e+01	Si
atom  1.97696000e+00 7.84570000e+00 1.59036000e+01	N
atom  -3.57794000e-01 7.59842000e+00 1.45950000e+01	N
atom  4.21656000e+00 7.81496000e+00 1.40626000e+01	N
atom  6.59656000e+00 6.67419000e+00 1.42787000e+01	N
atom  8.86148000e+00 5.50156000e+00 1.56770000e+01	N
atom  5.10423000e+00 9.11417000e+00 1.46366000e+01	Si
atom  8.00037000e+00 5.47723000e+00 1.40799000e+01	Si
atom  7.33192000e+00 9.28179000e+00 1.57319000e+01	Si
atom  6.64526000e+00 9.32176000e+00 1.40632000e+01	N
atom  5.78557000e+00 6.59723000e+00 1.58155000e+01	Si
atom  8.75060000e+00 8.39554000e+00 1.55810000e+01	N
atom  5.82749000e+00 8.35542000e+00 1.61679000e+01	N
atom  7.13260000e-02 4.68260000e+00 1.74921000e+01	Si
atom  1.84224000e-01 2.96247000e+00 1.72105000e+01	N
atom  3.56573000e+00 4.02366000e+00 1.80908000e+01	N
atom  2.42686000e+00 1.11063000e+00 1.64571000e+01	N
atom  3.90362000e+00 4.27946000e+00 1.63826000e+01	Si
atom  4.71231000e+00 2.63245000e+00 1.82403000e+01	Si
atom  8.20657000e+00 1.32967000e+00 1.70426000e+01	Si
atom  8.21280000e+00 3.14242000e+00 1.71273000e+01	N
atom  5.33084000e+00 3.02007000e+00 1.65586000e+01	N
atom  6.84082000e+00 3.95890000e+00 1.64419000e+01	Si
atom  -1.40354000e-01 7.42089000e+00 1.78068000e+01	N
atom  5.63434000e+00 9.09855000e+00 1.76854000e+01	Si
atom  7.33541000e+00 9.66545000e+00 1.78821000e+01	N
atom  6.41884000e+00 5.59302000e+00 1.70721000e+01	N
atom  6.56942000e+00 6.57974000e+00 1.85255000e+01	Si
atom  8.12739000e+00 7.15788000e+00 1.79798000e+01	N
atom  9.06130000e+00 7.01421000e+00 1.65400000e+01	Si
atom  2.57456000e+00 4.48295000e+00 1.94368000e+01	Si
atom  2.15729000e+00 3.17515000e+00 2.04595000e+01	N
atom  2.93675000e+00 1.49859000e+00 2.04693000e+01	Si
atom  3.70545000e+00 1.37968000e+00 1.88916000e+01	N
atom  -7.33136000e-03 8.80288000e-01 2.06678000e+01	Si
atom  8.37932000e+00 4.51182000e+00 1.98866000e+01	N
atom  7.07142000e+00 1.47135000e+00 1.95281000e+01	Si
atom  8.86687000e+00 1.90233000e+00 1.95240000e+01	N
atom  6.70546000e+00 4.08935000e+00 2.02388000e+01	Si
atom  6.22533000e+00 2.87746000e+00 1.90747000e+01	N
atom  6.25394000e+00 7.22003000e-01 2.08261000e+01	N
atom  9.08064000e+00 3.45251000e+00 1.87613000e+01	Si
atom  1.12789000e+00 5.23355000e+00 1.88310000e+01	N
atom  3.47526000e+00 5.71668000e+00 2.02824000e+01	N
atom  5.25987000e-01 9.73087000e+00 1.95518000e+01	N
atom  8.64568000e-01 7.01669000e+00 1.90809000e+01	Si
atom  3.85131000e+00 7.28380000e+00 1.95225000e+01	Si
atom  3.58230000e-01 7.23768000e+00 2.07584000e+01	N
atom  2.13455000e+00 9.63096000e+00 1.89450000e+01	Si
atom  2.37350000e+00 7.92714000e+00 1.88767000e+01	N
atom  -3.73982000e-01 8.80561000e+00 2.07735000e+01	Si
atom  8.36134000e+00 1.01444000e+01 2.07896000e+01	N
atom  8.28327000e+00 8.57829000e+00 1.89420000e+01	Si
atom  8.10294000e+00 7.64313000e+00 2.05239000e+01	N
atom  8.66753000e+00 6.01796000e+00 2.08289000e+01	Si
atom  6.21076000e+00 5.70856000e+00 1.99529000e+01	N
atom  5.23736000e+00 7.75886000e+00 1.86354000e+01	N
atom  3.91542000e+00 1.60515000e+00 2.20048000e+01	N
atom  1.03878000e+00 3.45138000e+00 2.17296000e+01	Si
atom  5.02333000e-02 4.82793000e+00 2.19769000e+01	N
atom  1.95633000e+00 3.32829000e+00 2.32465000e+01	N
atom  -3.70143000e-01 2.53261000e+00 2.12079000e+01	N
atom  6.40403000e+00 4.81394000e+00 2.29400000e+01	Si
atom  5.66471000e+00 1.77124000e+00 2.20340000e+01	Si
atom  6.14168000e+00 3.49521000e+00 2.17879000e+01	N
atom  9.10595000e+00 1.12308000e+00 2.22712000e+01	N
atom  2.28302000e+00 6.09591000e+00 2.27385000e+01	N
atom  5.80131000e-01 6.49432000e+00 2.23343000e+01	Si
atom  3.75811000e+00 6.41502000e+00 2.18555000e+01	Si
atom  3.61725000e+00 9.96505000e+00 2.26552000e+01	N
atom  -2.26637000e-01 9.74274000e+00 2.22170000e+01	N
atom  3.99251000e+00 7.96528000e+00 2.11137000e+01	N
atom  8.63641000e+00 8.62304000e+00 2.32557000e+01	N
atom  8.07298000e+00 5.38163000e+00 2.23861000e+01	N
atom  7.70711000e+00 8.87265000e+00 2.17683000e+01	Si
atom  6.08935000e+00 8.80533000e+00 2.23978000e+01	N
atom  5.13722000e+00 6.02981000e+00 2.27494000e+01	N
atom  4.79446000e+00 9.53048000e+00 2.15079000e+01	Si
atom  2.26605000e+00 7.98963000e-01 2.43356000e+01	N
atom  2.12174000e+00 4.85274000e+00 2.39405000e+01	Si
atom  4.28885000e+00 2.54990000e+00 2.46946000e+01	N
atom  1.22156000e+00 1.65500000e+00 2.54086000e+01	Si
atom  3.12447000e+00 2.09216000e+00 2.34996000e+01	Si
atom  7.56131000e-01 5.31128000e+00 2.49220000e+01	N
atom  3.20246000e+00 5.19859000e+00 2.52645000e+01	N
atom  6.02210000e+00 2.49485000e+00 2.47669000e+01	Si
atom  6.47722000e+00 4.17345000e+00 2.44918000e+01	N
atom  8.62639000e+00 8.68057000e-01 2.50722000e+01	N
atom  7.92217000e+00 5.40289000e-01 2.35012000e+01	Si
atom  6.49785000e+00 1.47876000e+00 2.34801000e+01	N
atom  1.67307000e+00 9.30453000e+00 2.46268000e+01	N
atom  3.52918000e+00 9.44594000e+00 2.42807000e+01	Si
atom  6.24209000e-02 9.14457000e+00 2.38794000e+01	Si
atom  4.40843000e+00 7.92266000e+00 2.44931000e+01	N
atom  -2.38677000e-01 7.36735000e+00 2.35078000e+01	N
atom  8.12562000e+00 8.23379000e+00 2.49023000e+01	Si
atom  5.77523000e+00 7.54141000e+00 2.34753000e+01	Si
atom  6.79689000e+00 5.52508000e+00 2.55365000e+01	Si
atom  7.01072000e+00 6.90365000e+00 2.46517000e+01	N
atom  7.42194000e+00 9.74759000e+00 2.55253000e+01	N
atom  2.08133000e+00 2.86371000e+00 2.63128000e+01	N
atom  3.64734000e+00 3.61764000e+00 2.59294000e+01	Si
atom  1.75146000e+00 5.07502000e+00 2.76660000e+01	N
atom  1.30617000e+00 3.47622000e+00 2.78475000e+01	Si
atom  -3.98537000e-01 3.08521000e+00 2.75452000e+01	N
atom  1.17218000e+00 3.77257000e-01 2.66531000e+01	N
atom  4.84349000e+00 3.70237000e+00 2.71564000e+01	N
atom  9.26547000e+00 4.28616000e+00 2.71407000e+01	Si
atom  6.31559000e+00 1.70516000e+00 2.63607000e+01	N
atom  6.00646000e+00 4.85399000e+00 2.77338000e+01	Si
atom  7.59561000e+00 4.77112000e+00 2.69075000e+01	N
atom  5.36175000e+00 2.18652000e+00 2.77870000e+01	Si
atom  7.52407000e+00 4.89856000e-01 2.63749000e+01	Si
atom  3.77231000e+00 8.54924000e+00 2.77551000e+01	Si
atom  2.93822000e+00 7.45346000e+00 2.66149000e+01	N
atom  2.91791000e+00 9.95466000e+00 2.71404000e+01	N
atom  1.61054000e+00 8.84067000e+00 2.63186000e+01	Si
atom  3.87002000e-01 9.64923000e+00 2.73447000e+01	N
atom  3.70308000e-01 7.28152000e+00 2.63281000e+01	N
atom  1.74419000e+00 6.06238000e+00 2.62634000e+01	Si
atom  4.16730000e+00 6.69841000e+00 2.55989000e+01	Si
atom  9.36081000e+00 7.52626000e+00 2.77361000e+01	Si
atom  5.42408000e+00 9.09007000e+00 2.75819000e+01	N
atom  9.29682000e+00 7.61361000e+00 2.59573000e+01	N
atom  5.92906000e+00 1.01248000e+01 2.63100000e+01	Si
atom  5.45481000e+00 6.05203000e+00 2.65600000e+01	N
atom  1.99030000e+00 2.85605000e+00 2.93115000e+01	N
atom  4.12287000e+00 1.19028000e+00 2.84608000e+01	N
atom  3.29949000e+00 1.87838000e+00 2.98241000e+01	Si
atom  -1.61183000e-01 4.37257000e+00 2.98011000e+01	N
atom  8.18017000e+00 1.97640000e+00 2.90024000e+01	Si
atom  6.55837000e+00 2.67456000e+00 2.89422000e+01	N
atom  5.79686000e+00 5.10012000e+00 2.93961000e+01	N
atom  9.41080000e+00 3.05419000e+00 2.83816000e+01	N
atom  5.88160000e+00 3.62277000e+00 3.02593000e+01	Si
atom  8.17868000e+00 5.54404000e-01 2.80211000e+01	N
atom  1.02802000e+00 9.83284000e+00 3.00298000e+01	N
atom  3.12790000e+00 8.17712000e+00 2.92487000e+01	N
atom  3.27034000e-01 7.32641000e+00 2.92548000e+01	N
atom  1.59540000e+00 8.17911000e+00 3.00434000e+01	Si
atom  7.85265000e+00 8.04959000e+00 2.81536000e+01	N
atom  6.60756000e+00 8.93264000e+00 2.88809000e+01	Si
atom  5.79513000e+00 7.85447000e+00 2.99226000e+01	N
atom  2.09787000e+00 4.50933000e+00 3.17012000e+01	N
atom  5.35790000e-01 2.26232000e+00 3.17791000e+01	N
atom  2.97177000e+00 7.65986000e-01 3.11369000e+01	N
atom  1.12683000e+00 3.55308000e+00 3.06581000e+01	Si
atom  1.76972000e-01 6.29627000e-01 3.10777000e+01	Si
atom  4.49163000e+00 2.69166000e+00 3.07807000e+01	N
atom  4.52437000e+00 1.30893000e+00 3.20031000e+01	Si
atom  8.35656000e+00 1.83238000e+00 3.07537000e+01	N
atom  6.32863000e+00 4.27998000e+00 3.17548000e+01	N
atom  7.17272000e+00 7.75484000e-01 3.16843000e+01	Si
atom  9.28271000e+00 4.29185000e+00 3.19520000e+01	N
atom  7.78857000e+00 5.04083000e+00 3.23330000e+01	Si
atom  6.23021000e+00 1.89974000e+00 3.27188000e+01	N
atom  2.22815000e+00 7.59268000e+00 3.15527000e+01	N
atom  4.16697000e+00 9.25595000e+00 3.17650000e+01	N
atom  2.89816000e+00 6.02508000e+00 3.22571000e+01	Si
atom  4.17826000e+00 7.92675000e+00 3.06528000e+01	Si
atom  4.42102000e+00 6.36119000e+00 3.14269000e+01	N
atom  2.79870000e+00 8.78705000e+00 3.26757000e+01	Si
atom  7.40024000e+00 8.00730000e+00 3.26485000e+01	Si
atom  6.87620000e+00 9.53684000e+00 3.20538000e+01	N
atom  5.99147000e+00 6.27260000e+00 3.06257000e+01	Si
atom  7.40776000e+00 6.53725000e+00 3.16520000e+01	N
atom  9.47242000e+00 9.82842000e+00 3.12285000e+01	N
atom  1.11860000e+00 3.60419000e+00 3.40569000e+01	N
atom  1.86481000e-01 2.27575000e+00 3.34715000e+01	Si
atom  3.79374000e+00 2.43631000e+00 3.33259000e+01	N
atom  3.94191000e+00 4.89062000e+00 3.36327000e+01	N
atom  2.60479000e+00 3.70155000e+00 3.31478000e+01	Si
atom  5.26587000e-01 9.75892000e-01 3.46967000e+01	N
atom  3.97844000e+00 1.24663000e+00 3.46265000e+01	Si
atom  6.75188000e-01 5.20733000e+00 3.44550000e+01	Si
atom  6.59799000e+00 2.07216000e+00 3.43928000e+01	Si
atom  8.99113000e+00 7.01298000e-01 3.39991000e+01	Si
atom  5.90045000e+00 3.61656000e+00 3.46165000e+01	N
atom  8.28497000e+00 1.95781000e+00 3.49366000e+01	N
atom  5.18502000e+00 3.62828000e+00 3.28614000e+01	Si
atom  2.54231000e-01 9.28419000e+00 3.39981000e+01	Si
atom  1.81594000e+00 6.29660000e+00 3.37031000e+01	N
atom  3.55381000e+00 8.34280000e+00 3.41253000e+01	N
atom  1.44963000e+00 9.81038000e+00 3.28049000e+01	N
atom  2.41877000e+00 7.30955000e+00 3.49796000e+01	Si
atom  9.27942000e+00 6.62535000e+00 3.42651000e+01	Si
atom  7.94989000e+00 5.48287000e+00 3.40662000e+01	N
atom  8.96843000e+00 8.00270000e+00 3.32852000e+01	N
atom  6.38406000e+00 7.85184000e+00 3.40118000e+01	N
atom  5.12708000e+00 8.74204000e+00 3.47509000e+01	Si
atom  2.94143000e+00 1.51643000e+00 3.59931000e+01	N
atom  1.36327000e+00 1.14417000e+00 3.62505000e+01	Si
atom  3.55228000e+00 4.20428000e+00 3.65019000e+01	N
atom  4.36342000e-01 2.48625000e+00 3.68660000e+01	N
atom  3.51953000e+00 2.68838000e+00 3.72303000e+01	Si
atom  8.10862000e+00 4.18082000e+00 3.66513000e+01	N
atom  8.62410000e+00 2.49807000e+00 3.65029000e+01	Si
atom  5.55831000e+00 1.15018000e+00 3.54057000e+01	N
atom  6.04825000e+00 1.09763000e+00 3.71012000e+01	Si
atom  7.05408000e+00 4.78466000e+00 3.53921000e+01	Si
atom  4.58195000e+00 4.77369000e+00 3.52320000e+01	Si
atom  1.14756000e+00 5.48980000e+00 3.61234000e+01	N
atom  2.58422000e+00 5.51120000e+00 3.71402000e+01	Si
atom  1.07697000e+00 8.42670000e+00 3.53241000e+01	N
atom  4.91212000e-01 8.44206000e+00 3.70321000e+01	Si
atom  3.38817000e+00 6.78892000e+00 3.63293000e+01	N
atom  -6.49033000e-02 6.06502000e+00 3.71691000e+01	Si
atom  1.46920000e-01 1.01180000e+01 3.72276000e+01	N
atom  5.84748000e+00 5.77066000e+00 3.59837000e+01	N
atom  5.03149000e+00 6.99731000e+00 3.68886000e+01	Si
atom  6.50294000e+00 9.84214000e+00 3.71243000e+01	Si
atom  5.53727000e+00 8.58119000e+00 3.63793000e+01	N
atom  8.17961000e+00 9.71608000e+00 3.65398000e+01	N
atom  8.88455000e+00 8.21426000e+00 3.71547000e+01	Si
atom  9.12958000e+00 6.99891000e+00 3.59516000e+01	N
atom  8.63831000e+00 5.75398000e+00 3.71102000e+01	Si
atom  2.74503000e+00 2.64811000e+00 3.88087000e+01	N
atom  1.50289000e-01 4.01184000e+00 3.91050000e+01	N
atom  1.89549000e+00 3.91643000e+00 3.94712000e+01	Si
atom  4.17219000e+00 1.84447000e+00 3.95268000e+01	Si
atom  4.98454000e+00 2.09281000e+00 3.79513000e+01	N
atom  7.93541000e+00 1.21051000e+00 3.93049000e+01	Si
atom  7.73817000e+00 1.43180000e+00 3.75785000e+01	N
atom  2.73595000e+00 5.33419000e+00 3.89617000e+01	N
atom  1.07332000e+00 7.02188000e+00 3.80025000e+01	N
atom  3.96910000e+00 6.44402000e+00 3.97282000e+01	Si
atom  1.30503000e+00 7.36024000e+00 3.95957000e+01	Si
atom  6.68533000e+00 7.68892000e+00 3.90789000e+01	Si
atom  7.76332000e+00 7.09975000e+00 3.80166000e+01	N
atom  5.19274000e+00 6.89057000e+00 3.85903000e+01	N
atom  6.43130000e+00 9.40596000e+00 3.88037000e+01	N
atom  2.87040000e+00 1.31717000e+01 9.18517000e-01	N
atom  3.85024000e-01 1.42084000e+01 1.28669000e+00	N
atom  1.85167000e+00 1.46136000e+01 3.71886000e-01	Si
atom  4.17780000e+00 1.05290000e+01 2.48993000e-01	N
atom  3.22194000e+00 1.18348000e+01 -2.03622000e-01	Si
atom  -4.78835000e-01 1.08981000e+01 1.81253000e+00	N
atom  7.14447000e+00 1.47697000e+01 9.46586000e-01	N
atom  8.73157000e+00 1.23795000e+01 1.23016000e+00	N
atom  7.62362000e+00 1.32627000e+01 1.12419000e-01	Si
atom  8.18674000e+00 1.09128000e+01 2.09776000e+00	Si
atom  5.91428000e+00 1.06175000e+01 6.44699000e-02	Si
atom  -2.18152000e-01 1.68597000e+01 6.31157000e-01	N
atom  1.43599000e+00 1.74911000e+01 6.79200000e-01	Si
atom  2.55250000e+00 1.61619000e+01 9.48434000e-01	N
atom  4.34040000e+00 1.97806000e+01 1.35557000e+00	Si
atom  4.37018000e+00 1.81061000e+01 1.91229000e+00	N
atom  3.81299000e+00 1.64438000e+01 2.16291000e+00	Si
atom  1.49188000e+00 1.84549000e+01 2.15592000e+00	N
atom  7.70376000e+00 1.61924000e+01 7.40437000e-02	Si
atom  6.97896000e+00 1.75720000e+01 8.35972000e-01	N
atom  6.88019000e+00 1.91603000e+01 -2.82462000e-02	Si
atom  6.06842000e+00 1.98086000e+01 1.34764000e+00	N
atom  2.13939000e+00 1.38170000e+01 3.58164000e+00	N
atom  5.20200000e-01 1.42498000e+01 3.12599000e+00	Si
atom  4.34722000e+00 1.26544000e+01 3.78455000e+00	N
atom  3.47519000e+00 1.34882000e+01 2.52869000e+00	Si
atom  7.55298000e+00 1.16385000e+01 3.52085000e+00	N
atom  6.64483000e+00 1.40618000e+01 3.92723000e+00	N
atom  6.24045000e+00 1.50369000e+01 2.54597000e+00	Si
atom  6.04810000e+00 1.23850000e+01 4.13520000e+00	Si
atom  4.50348000e+00 1.49034000e+01 2.31450000e+00	N
atom  9.39868000e-02 1.58891000e+01 3.42145000e+00	N
atom  1.92591000e-01 1.94710000e+01 2.71128000e+00	Si
atom  3.10203000e+00 1.68660000e+01 3.69829000e+00	N
atom  2.97827000e+00 1.85619000e+01 3.28115000e+00	Si
atom  3.42414000e+00 2.02582000e+01 2.73810000e+00	N
atom  5.73421000e-01 2.02282000e+01 4.24157000e+00	N
atom  9.09941000e+00 1.88150000e+01 3.05252000e+00	Si
atom  7.27376000e+00 1.88179000e+01 3.54168000e+00	N
atom  6.15486000e+00 1.81048000e+01 2.32715000e+00	Si
atom  6.24781000e+00 1.65762000e+01 3.18932000e+00	N
atom  1.41460000e-01 1.16884000e+01 5.81608000e+00	N
atom  2.60632000e+00 1.27475000e+01 6.24627000e+00	N
atom  3.90158000e+00 1.49344000e+01 5.70120000e+00	N
atom  3.20894000e+00 1.36224000e+01 4.90996000e+00	Si
atom  8.31444000e+00 1.34322000e+01 6.04778000e+00	N
atom  7.22480000e+00 1.46543000e+01 5.45604000e+00	Si
atom  6.01786000e+00 1.15655000e+01 5.60559000e+00	N
atom  9.21321000e+00 1.09882000e+01 5.69919000e+00	N
atom  8.61982000e+00 1.22903000e+01 4.73253000e+00	Si
atom  1.21622000e+00 1.92843000e+01 5.57221000e+00	Si
atom  2.85093000e+00 1.89748000e+01 5.10468000e+00	N
atom  3.45511000e+00 1.66770000e+01 5.35517000e+00	Si
atom  1.15686000e-01 1.78227000e+01 5.61990000e+00	N
atom  2.31115000e+00 1.67659000e+01 6.68858000e+00	N
atom  -3.61941000e-01 1.54865000e+01 6.35317000e+00	N
atom  5.74292000e-01 1.69216000e+01 6.90227000e+00	Si
atom  4.45572000e+00 1.91533000e+01 5.85440000e+00	Si
atom  6.75238000e+00 1.73653000e+01 4.82236000e+00	Si
atom  7.09420000e+00 1.99616000e+01 4.98345000e+00	Si
atom  5.05288000e+00 1.76013000e+01 5.36325000e+00	N
atom  7.41851000e+00 1.86193000e+01 6.07839000e+00	N
atom  8.04938000e+00 1.61287000e+01 5.11476000e+00	N
atom  5.38109000e+00 2.04082000e+01 5.19978000e+00	N
atom  1.99702000e+00 1.13993000e+01 8.18757000e+00	N
atom  4.13037000e-01 1.36043000e+01 8.07521000e+00	N
atom  3.59993000e+00 1.19069000e+01 7.47803000e+00	Si
atom  1.12361000e+00 1.23957000e+01 7.02041000e+00	Si
atom  4.49078000e+00 1.32856000e+01 8.05176000e+00	N
atom  4.65214000e+00 1.48857000e+01 7.33569000e+00	Si
atom  8.53362000e+00 1.32022000e+01 7.81853000e+00	Si
atom  8.82871000e+00 1.48961000e+01 8.44225000e+00	N
atom  7.25900000e+00 1.23406000e+01 8.73953000e+00	N
atom  6.39270000e+00 1.50409000e+01 6.89074000e+00	N
atom  2.64515000e+00 1.67146000e+01 8.36458000e+00	Si
atom  4.99611000e-01 1.76915000e+01 8.42737000e+00	N
atom  2.23399000e-01 1.94256000e+01 8.42976000e+00	Si
atom  4.40929000e+00 1.63275000e+01 8.22495000e+00	N
atom  3.07442000e+00 1.80798000e+01 9.27939000e+00	N
atom  8.33537000e+00 1.84048000e+01 7.48882000e+00	Si
atom  9.53294000e+00 1.72878000e+01 6.99561000e+00	N
atom  4.75798000e+00 1.79424000e+01 8.82583000e+00	Si
atom  4.69987000e+00 1.90969000e+01 7.58226000e+00	N
atom  7.48742000e+00 1.73617000e+01 8.67532000e+00	N
atom  8.99600000e+00 1.99129000e+01 8.24506000e+00	N
atom  7.17682000e+00 1.56838000e+01 8.31270000e+00	Si
atom  1.50246000e+00 1.27921000e+01 1.05369000e+01	N
atom  1.82847000e+00 1.12299000e+01 9.88413000e+00	Si
atom  8.87597000e-01 1.41652000e+01 9.65557000e+00	Si
atom  -2.25033000e-01 1.50876000e+01 1.08211000e+01	N
atom  5.23446000e+00 1.23101000e+01 1.08029000e+01	N
atom  6.29754000e+00 1.47563000e+01 9.53930000e+00	N
atom  8.66213000e+00 1.11047000e+01 1.07803000e+01	N
atom  6.76075000e+00 1.51448000e+01 1.12203000e+01	Si
atom  4.83474000e+00 1.06053000e+01 1.08698000e+01	Si
atom  8.20402000e+00 1.40843000e+01 1.12789000e+01	N
atom  7.71276000e+00 1.07207000e+01 9.43070000e+00	Si
atom  9.32299000e+00 1.48598000e+01 1.01622000e+01	Si
atom  5.74871000e+00 1.31023000e+01 9.25798000e+00	Si
atom  2.85740000e-01 1.68373000e+01 1.00215000e+01	Si
atom  2.75925000e+00 1.94827000e+01 1.02050000e+01	Si
atom  8.80909000e-01 1.78205000e+01 1.13685000e+01	N
atom  1.06545000e+00 1.99502000e+01 9.83547000e+00	N
atom  3.11177000e-01 1.95506000e+01 1.14206000e+01	Si
atom  1.74471000e+00 1.56914000e+01 9.35983000e+00	N
atom  7.19241000e+00 1.79925000e+01 1.03883000e+01	Si
atom  5.47247000e+00 1.81827000e+01 1.03814000e+01	N
atom  8.21779000e+00 1.92499000e+01 1.09285000e+01	N
atom  1.52900000e+00 1.28636000e+01 1.22708000e+01	Si
atom  2.65519000e+00 1.41219000e+01 1.25334000e+01	N
atom  1.99745000e+00 1.12835000e+01 1.28241000e+01	N
atom  2.68178000e-02 1.33565000e+01 1.30962000e+01	N
atom  3.58965000e+00 1.10828000e+01 1.35342000e+01	Si
atom  3.90780000e+00 1.51247000e+01 1.28961000e+01	Si
atom  -3.18318000e-01 1.49942000e+01 1.26402000e+01	Si
atom  4.54804000e+00 1.24464000e+01 1.36099000e+01	N
atom  5.66606000e+00 1.29125000e+01 1.24093000e+01	Si
atom  7.18264000e+00 1.22477000e+01 1.29918000e+01	N
atom  5.51421000e+00 1.46089000e+01 1.23069000e+01	N
atom  8.45574000e+00 1.24697000e+01 1.18980000e+01	Si
atom  2.45719000e+00 1.96888000e+01 1.31940000e+01	Si
atom  8.58415000e-01 1.59895000e+01 1.34076000e+01	N
atom  3.41226000e+00 1.65737000e+01 1.20999000e+01	N
atom  1.89021000e+00 1.71445000e+01 1.25793000e+01	Si
atom  3.35246000e+00 1.91215000e+01 1.17911000e+01	N
atom  4.51571000e+00 1.78874000e+01 1.18025000e+01	Si
atom  8.14529000e+00 1.84615000e+01 1.36339000e+01	N
atom  7.06831000e+00 1.71909000e+01 1.32283000e+01	Si
atom  9.16095000e+00 1.91924000e+01 1.24705000e+01	Si
atom  7.29851000e+00 1.66965000e+01 1.15564000e+01	N
atom  5.56753000e+00 1.80848000e+01 1.31501000e+01	N
atom  8.23032000e-01 1.20701000e+01 1.53923000e+01	N
atom  4.10112000e+00 1.50127000e+01 1.46123000e+01	N
atom  3.93010000e+00 1.03123000e+01 1.50772000e+01	N
atom  4.62583000e+00 1.35127000e+01 1.50173000e+01	Si
atom  6.35701000e+00 1.35358000e+01 1.53156000e+01	N
atom  7.47985000e+00 1.23286000e+01 1.46868000e+01	Si
atom  9.06008000e+00 1.31229000e+01 1.49302000e+01	N
atom  7.38012000e+00 1.10186000e+01 1.57633000e+01	N
atom  7.13702000e+00 1.50185000e+01 1.58680000e+01	Si
atom  3.70057000e+00 1.99541000e+01 1.44344000e+01	N
atom  4.12985000e+00 1.76982000e+01 1.55374000e+01	N
atom  2.59871000e+00 1.85864000e+01 1.56237000e+01	Si
atom  6.95304000e-01 1.71129000e+01 1.47516000e+01	Si
atom  4.31175000e+00 1.60771000e+01 1.60018000e+01	Si
atom  1.64665000e+00 1.71717000e+01 1.61557000e+01	N
atom  1.80312000e+00 1.82657000e+01 1.39129000e+01	N
atom  5.15990000e+00 1.88296000e+01 1.46607000e+01	Si
atom  7.48623000e+00 1.62490000e+01 1.45736000e+01	N
atom  6.59782000e+00 1.88786000e+01 1.57107000e+01	N
atom  8.14125000e+00 1.79480000e+01 1.53551000e+01	Si
atom  3.10186000e+00 1.36238000e+01 1.75979000e+01	Si
atom  8.22134000e-01 1.17872000e+01 1.70976000e+01	Si
atom  1.37062000e+00 1.33542000e+01 1.78162000e+01	N
atom  2.06428000e+00 1.06873000e+01 1.74679000e+01	N
atom  3.59250000e+00 1.09734000e+01 1.66131000e+01	Si
atom  6.76905000e-02 1.42965000e+01 1.83734000e+01	Si
atom  3.33487000e+00 1.53085000e+01 1.72715000e+01	N
atom  3.80781000e+00 1.26762000e+01 1.63817000e+01	N
atom  8.15404000e+00 1.43507000e+01 1.71764000e+01	N
atom  7.63037000e+00 1.13531000e+01 1.75844000e+01	Si
atom  9.31417000e+00 1.18747000e+01 1.73297000e+01	N
atom  4.67408000e+00 1.04662000e+01 1.79104000e+01	N
atom  2.42050000e+00 1.97336000e+01 1.69541000e+01	N
atom  2.64256000e-01 1.59897000e+01 1.80028000e+01	N
atom  1.93567000e+00 1.63067000e+01 1.75986000e+01	Si
atom  2.46377000e+00 1.90648000e+01 1.86463000e+01	Si
atom  8.34932000e+00 1.72336000e+01 1.69619000e+01	N
atom  5.92569000e+00 1.59321000e+01 1.66336000e+01	N
atom  6.01792000e+00 1.83451000e+01 1.81922000e+01	N
atom  6.37186000e+00 1.97649000e+01 1.72477000e+01	Si
atom  6.78383000e+00 1.68440000e+01 1.77442000e+01	Si
atom  2.70158000e+00 1.49303000e+01 2.03923000e+01	N
atom  4.16647000e+00 1.39445000e+01 2.04330000e+01	Si
atom  -5.70978000e-02 1.41705000e+01 2.01413000e+01	N
atom  3.94488000e+00 1.29764000e+01 1.90047000e+01	N
atom  3.05957000e+00 1.05232000e+01 2.01826000e+01	N
atom  4.42726000e+00 1.13601000e+01 1.94206000e+01	Si