lattice_vector  3.99166568e+01 0.00000000e+00 0.00000000e+00
lattice_vector  2.44419030e-15 3.99166568e+01 0.00000000e+00
lattice_vector  2.44419030e-15 2.44419030e-15 3.99166568e+01
atom  6.59410000e-01 2.65528000e+00 3.24825000e+00	Si
atom  9.81191000e-01 8.52240000e-01 8.01771000e-01	Si
atom  -9.36381000e-02 1.70728000e+00 2.01734000e+00	N
atom  1.59895000e-01 4.95586000e+00 9.63292000e-02	Si
atom  -4.73119000e-01 4.00098000e+00 3.28534000e+00	N
atom  5.14798000e-01 1.78845000e+00 4.79324000e+00	N
atom  1.58357000e+00 9.34363000e+00 3.21091000e+00	N
atom  1.93954000e-01 6.22942000e+00 1.41831000e+00	N
atom  1.02008000e+00 9.65857000e+00 1.63542000e+00	Si
atom  1.65224000e+00 8.59489000e+00 4.21840000e-01	N
atom  1.67898000e+00 6.99912000e+00 1.15425000e+00	Si
atom  1.17548000e-02 2.55504000e+00 7.42860000e+00	N
atom  9.77823000e-01 2.90320000e+00 6.03137000e+00	Si
atom  5.94627000e-01 4.58548000e+00 5.65215000e+00	N
atom  7.22966000e-01 1.65368000e+00 8.74307000e+00	Si
atom  1.39302000e+00 2.92154000e+00 9.70301000e+00	N
atom  1.20292000e-01 6.55806000e+00 7.49709000e+00	N
atom  1.64439000e+00 7.55995000e+00 5.35127000e+00	N
atom  2.45071000e-01 9.52721000e+00 7.36714000e+00	N
atom  2.05215000e-01 9.72641000e+00 9.08813000e+00	Si
atom  1.57113000e+00 8.89481000e+00 6.44369000e+00	Si
atom  4.98965000e-01 6.83902000e+00 9.18235000e+00	Si
atom  1.22931000e+00 6.06469000e+00 6.27026000e+00	Si
atom  -4.46717000e-01 5.53018000e-01 9.39836000e+00	N
atom  -5.39837000e-01 8.25605000e+00 9.58198000e+00	N
atom  1.72688000e+00 9.63936000e+00 9.82488000e+00	N
atom  4.00815000e-01 3.76596000e+00 1.22829000e+01	N
atom  1.05103000e+00 4.30310000e+00 1.07591000e+01	Si
atom  1.01961000e+00 3.55759000e+00 1.38844000e+01	Si
atom  1.14079000e+00 1.87882000e+00 1.45798000e+01	N
atom  1.92892000e+00 8.87580000e-01 1.33019000e+01	Si
atom  1.35707000e+00 7.13873000e+00 1.42876000e+01	N
atom  2.05429000e-02 7.72635000e+00 1.20454000e+01	N
atom  1.52414000e+00 7.87729000e+00 1.27596000e+01	Si
atom  -9.18213000e-02 5.42989000e+00 1.00378000e+01	N
atom  5.08317000e-01 7.17667000e+00 1.57839000e+01	Si
atom  8.42477000e-01 3.02996000e+00 1.74840000e+01	N
atom  8.19501000e-02 4.04645000e+00 1.53044000e+01	N
atom  2.90103000e-01 2.17971000e+00 1.60328000e+01	Si
atom  4.15146000e-01 4.60154000e+00 1.69907000e+01	Si
atom  4.29853000e-01 4.85845000e-01 1.68892000e+01	N
atom  9.10516000e-01 7.32616000e+00 1.93448000e+01	N
atom  7.34100000e-01 8.69298000e+00 1.65726000e+01	N
atom  1.32110000e+00 6.02369000e+00 1.68332000e+01	N
atom  1.28670000e+00 4.59590000e+00 2.32864000e+01	Si
atom  8.03795000e-01 3.01639000e+00 2.26886000e+01	N
atom  4.85244000e-01 3.63316000e+00 2.11595000e+01	Si
atom  1.53679000e-01 1.39139000e+00 2.30444000e+01	Si
atom  1.67842000e+00 6.00825000e-01 2.21635000e+01	N
atom  1.16937000e+00 5.34211000e+00 2.16497000e+01	N
atom  -9.73037000e-03 5.32615000e+00 2.41569000e+01	N
atom  1.40625000e+00 7.50839000e+00 2.11013000e+01	Si
atom  4.65517000e-01 9.26900000e+00 2.28924000e+01	Si
atom  3.94969000e-02 7.63849000e+00 2.22820000e+01	N
atom  1.63013000e+00 9.31664000e+00 2.13970000e+01	N
atom  8.99407000e-01 8.91966000e+00 2.45897000e+01	N
atom  4.84676000e-01 2.45991000e+00 2.57831000e+01	Si
atom  9.83989000e-01 4.06305000e+00 2.62981000e+01	N
atom  5.79295000e-01 3.28776000e+00 2.83012000e+01	Si
atom  -1.70409000e-01 1.92505000e+00 2.73178000e+01	N
atom  7.68359000e-01 4.68421000e-01 2.76804000e+01	Si
atom  1.77133000e+00 1.44819000e+00 2.54585000e+01	N
atom  -2.66905000e-01 5.27675000e+00 2.58327000e+01	Si
atom  8.95137000e-01 9.25892000e+00 2.97990000e+01	N
atom  4.14835000e-01 6.68314000e+00 2.65203000e+01	N
atom  5.47462000e-01 9.62633000e+00 2.80816000e+01	Si
atom  1.82001000e+00 7.02884000e+00 2.75196000e+01	Si
atom  -1.72893000e-01 8.15050000e+00 2.57312000e+01	Si
atom  1.78993000e+00 8.77687000e+00 2.72186000e+01	N
atom  1.85783000e+00 6.68796000e+00 2.91779000e+01	N
atom  8.08917000e-01 3.12941000e+00 3.38935000e+01	Si
atom  1.55113000e+00 4.73375000e+00 3.36811000e+01	N
atom  7.80730000e-01 8.31512000e-01 3.03105000e+01	Si
atom  8.20762000e-01 5.12550000e+00 3.08809000e+01	N
atom  8.53319000e-01 7.53320000e+00 3.02798000e+01	Si
atom  1.31318000e+00 8.63158000e+00 3.30853000e+01	Si
atom  8.29404000e-01 5.75990000e+00 3.24429000e+01	Si
atom  1.60990000e+00 7.32661000e+00 3.19521000e+01	N
atom  -4.03173000e-01 8.68003000e+00 3.32733000e+01	N
atom  -2.82965000e-01 9.91020000e+00 3.78597000e+01	Si
atom  4.23269000e-03 3.71018000e+00 3.53446000e+01	N
atom  1.35329000e+00 7.75528000e-01 3.54120000e+01	Si
atom  3.57685000e-01 1.31273000e+00 3.66828000e+01	N
atom  -1.19209000e-01 1.00879000e+00 3.94344000e+01	N
atom  8.89867000e-01 3.47971000e+00 3.93435000e+01	N
atom  1.85736000e+00 5.23805000e+00 3.66878000e+01	N
atom  8.97017000e-01 5.16722000e+00 3.52588000e+01	Si
atom  1.32820000e+00 7.83034000e+00 3.73922000e+01	N
atom  2.33845000e-01 6.73917000e+00 3.51333000e+01	N
atom  7.43581000e-01 8.25144000e+00 3.58908000e+01	Si
atom  1.17612000e+00 6.22632000e+00 3.79358000e+01	Si
atom  -3.42685000e-01 5.87146000e+00 3.85922000e+01	N
atom  1.38577000e+00 1.03316000e+01 3.83488000e+01	N
atom  2.40683000e-01 2.38850000e+00 2.98449000e+01	N
atom  5.20703000e-01 1.43004000e+01 1.59113000e+00	N
atom  1.27858000e+00 1.13458000e+01 1.12456000e+00	N
atom  5.08415000e-01 1.25826000e+01 2.14345000e+00	Si
atom  1.19972000e+00 1.22429000e+01 3.69968000e+00	N
atom  1.10522000e+00 1.06537000e+01 4.32098000e+00	Si
atom  1.39767000e+00 1.55359000e+01 2.36591000e+00	Si
atom  4.96127000e-01 1.64386000e+01 3.59225000e+00	N
atom  2.28622000e-01 1.94479000e+01 4.05890000e+00	N
atom  6.91627000e-01 1.74616000e+01 4.89508000e-01	Si
atom  8.54460000e-02 1.97638000e+01 9.77189000e-01	Si
atom  -3.19757000e-01 1.82701000e+01 1.80733000e+00	N
atom  1.35213000e+00 1.45218000e+01 5.45117000e+00	N
atom  1.24449000e+00 1.39922000e+01 7.08830000e+00	Si
atom  -3.47890000e-01 1.34939000e+01 7.51344000e+00	N
atom  4.50686000e-02 1.74063000e+01 9.30012000e+00	N
atom  1.60410000e+00 1.71482000e+01 6.06664000e+00	N
atom  7.13831000e-01 1.91487000e+01 7.65102000e+00	N
atom  1.14584000e+00 1.55605000e+01 8.11302000e+00	N
atom  5.81883000e-01 1.60417000e+01 5.24721000e+00	Si
atom  1.33118000e+00 1.74526000e+01 7.81303000e+00	Si
atom  -3.63657000e-01 1.57247000e+01 9.03275000e+00	Si
atom  1.95323000e+00 1.32992000e+01 9.69074000e+00	N
atom  2.09440000e-01 1.42869000e+01 1.32845000e+01	N
atom  9.97148000e-01 1.18522000e+01 1.45724000e+01	N
atom  3.73683000e-01 1.28902000e+01 1.04062000e+01	Si
atom  -6.16018000e-02 1.46975000e+01 1.03762000e+01	N
atom  1.45596000e+00 1.20630000e+01 1.18443000e+01	N
atom  -8.15114000e-02 1.25325000e+01 1.31636000e+01	Si
atom  1.40442000e+00 1.51425000e+01 1.41141000e+01	Si
atom  3.05070000e-01 1.79126000e+01 1.10360000e+01	Si
atom  -2.92301000e-01 1.66672000e+01 1.21407000e+01	N
atom  6.14034000e-01 1.66089000e+01 1.48087000e+01	N
atom  1.20029000e+00 1.13030000e+01 1.84127000e+01	Si
atom  5.89897000e-01 1.45512000e+01 1.89596000e+01	N
atom  9.92721000e-01 1.29471000e+01 1.58931000e+01	Si
atom  1.85829000e+00 1.25036000e+01 1.73628000e+01	N
atom  -4.17167000e-01 1.08230000e+01 1.79192000e+01	N
atom  9.33921000e-01 1.76863000e+01 1.61756000e+01	Si
atom  1.08320000e+00 1.62815000e+01 1.89786000e+01	Si
atom  1.61904000e+00 1.65818000e+01 1.73103000e+01	N
atom  8.23598000e-01 1.39350000e+01 2.18939000e+01	N
atom  9.30725000e-01 1.11055000e+01 2.29527000e+01	N
atom  1.28460000e+00 1.36070000e+01 2.03003000e+01	Si
atom  1.33603000e+00 1.19170000e+01 2.00468000e+01	N
atom  1.88869000e+00 1.10398000e+01 2.15058000e+01	Si
atom  1.47191000e+00 1.77027000e+01 2.14380000e+01	Si
atom  9.59240000e-01 1.98338000e+01 2.39344000e+01	N
atom  1.43986000e+00 1.93972000e+01 2.10907000e+01	N
atom  -1.23822000e-01 1.70726000e+01 2.18953000e+01	N
atom  1.45031000e+00 1.81572000e+01 2.44751000e+01	Si
atom  1.24581000e-02 1.71959000e+01 2.47535000e+01	N
atom  6.53878000e-01 1.18618000e+01 2.61744000e+01	Si
atom  8.53848000e-01 1.26585000e+01 2.90110000e+01	Si
atom  6.19661000e-01 1.13621000e+01 2.79042000e+01	N
atom  8.04099000e-01 1.35621000e+01 2.65474000e+01	N
atom  4.18999000e-01 1.88382000e+01 2.97068000e+01	N
atom  4.51530000e-01 1.84976000e+01 2.69521000e+01	N
atom  1.42580000e+00 1.90285000e+01 2.82237000e+01	Si
atom  7.19290000e-01 1.19035000e+01 3.05705000e+01	N
atom  1.70214000e+00 1.50862000e+01 3.41379000e+01	Si
atom  2.64880000e-01 1.41728000e+01 3.45524000e+01	N
atom  -1.90252000e-01 1.15705000e+01 3.35678000e+01	N
atom  1.78249000e+00 1.04597000e+01 3.06951000e+01	Si
atom  -4.22148000e-01 1.21035000e+01 3.19030000e+01	Si
atom  1.19456000e+00 1.57939000e+01 3.26525000e+01	N
atom  1.24199000e+00 1.85366000e+01 3.22402000e+01	N
atom  7.28159000e-01 1.76261000e+01 3.08754000e+01	Si
atom  -8.51880000e-02 1.93579000e+01 3.32033000e+01	Si
atom  4.80804000e-01 1.24079000e+01 3.49947000e+01	Si
atom  1.14656000e+00 1.30167000e+01 3.86872000e+01	N
atom  1.85145000e+00 1.16138000e+01 3.94632000e+01	Si
atom  -4.97651000e-01 1.27788000e+01 3.64795000e+01	N
atom  4.78535000e-01 1.93840000e+01 3.78706000e+01	Si
atom  7.69065000e-01 1.89869000e+01 3.95558000e+01	N
atom  2.10554000e-01 1.79399000e+01 3.70367000e+01	N
atom  1.82854000e+00 2.01569000e+01 3.69354000e+01	N
atom  5.74159000e-01 1.77876000e+01 3.53349000e+01	Si
atom  1.53825000e+00 1.63120000e+01 3.53588000e+01	N
atom  1.52538000e+00 1.59531000e+01 3.83077000e+01	N
atom  -1.77830000e-01 1.64857000e+01 3.79402000e+01	Si
atom  7.77199000e-01 2.09535000e+01 3.46722000e+00	Si
atom  4.38412000e-01 2.48235000e+01 4.36702000e+00	Si
atom  1.03475000e+00 2.09292000e+01 1.76133000e+00	N
atom  1.36605000e+00 2.37648000e+01 7.88488000e-01	N
atom  1.27370000e+00 2.20522000e+01 4.81345000e-01	Si
atom  5.13748000e-01 2.51035000e+01 1.37436000e+00	Si
atom  -1.49314000e-01 2.60746000e+01 5.33425000e+00	N
atom  7.27509000e-01 2.94484000e+01 6.41025000e-01	Si
atom  1.76155000e+00 2.76843000e+01 3.72934000e+00	N
atom  2.32826000e-01 2.62179000e+01 8.63013000e+00	Si
atom  1.13624000e+00 2.07882000e+01 8.33123000e+00	Si
atom  4.53799000e-01 2.34017000e+01 5.35537000e+00	N
atom  3.29654000e-01 2.21118000e+01 7.65684000e+00	N
atom  7.36456000e-01 2.36522000e+01 7.07388000e+00	Si
atom  1.07076000e+00 2.76164000e+01 9.38284000e+00	N
atom  4.92528000e-01 2.76638000e+01 4.98625000e+00	Si
atom  1.33345000e+00 2.52868000e+01 7.77356000e+00	N
atom  1.15609000e+00 2.84123000e+01 6.36918000e+00	N
atom  5.52620000e-01 2.35348000e+01 1.15340000e+01	N
atom  -7.52731000e-02 2.29296000e+01 1.41538000e+01	N
atom  1.46495000e+00 2.20710000e+01 1.12451000e+01	Si
atom  1.48116000e+00 2.20786000e+01 1.40432000e+01	Si
atom  8.27567000e-01 2.11050000e+01 1.00133000e+01	N
atom  1.51090000e+00 2.09705000e+01 1.26582000e+01	N
atom  1.70501000e-01 2.52677000e+01 1.14268000e+01	Si
atom  5.18281000e-01 2.77311000e+01 1.27824000e+01	Si
atom  1.34805000e+00 2.63175000e+01 1.20742000e+01	N
atom  2.46918000e-01 2.89652000e+01 1.02182000e+01	Si
atom  1.64022000e+00 2.90289000e+01 1.31555000e+01	N
atom  -2.06496000e-01 2.71431000e+01 1.42774000e+01	N
atom  -2.51492000e-01 2.34330000e+01 1.69405000e+01	N
atom  1.30615000e+00 2.14334000e+01 1.56046000e+01	N
atom  1.28743000e+00 2.43834000e+01 1.71720000e+01	Si
atom  -2.86535000e-01 2.22593000e+01 1.56934000e+01	Si
atom  1.85339000e+00 2.53046000e+01 1.57750000e+01	N
atom  8.92558000e-01 2.97259000e+01 1.69351000e+01	Si
atom  4.05076000e-01 2.81507000e+01 1.93879000e+01	N
atom  7.68188000e-03 2.70781000e+01 1.80046000e+01	Si
atom  1.31777000e+00 2.69479000e+01 1.55043000e+01	Si
atom  3.52457000e-01 2.80577000e+01 1.65859000e+01	N
atom  9.36128000e-01 2.56422000e+01 1.82275000e+01	N
atom  -3.85419000e-01 3.02856000e+01 1.79503000e+01	N
atom  2.07149000e+00 2.01937000e+01 1.83108000e+01	N
atom  1.12250000e+00 3.03638000e+01 1.07812000e+01	N
atom  8.95045000e-01 2.19558000e+01 2.26645000e+01	N
atom  2.31903000e-01 2.14211000e+01 2.41238000e+01	Si
atom  4.07147000e-02 2.30740000e+01 2.16852000e+01	Si
atom  9.01022000e-01 2.35390000e+01 2.02315000e+01	N
atom  -1.09006000e-01 2.44611000e+01 2.26089000e+01	N
atom  1.76919000e+00 2.04137000e+01 2.23963000e+01	Si
atom  8.10918000e-01 2.52399000e+01 1.99271000e+01	Si
atom  1.18561000e+00 2.52090000e+01 2.35052000e+01	Si
atom  5.24338000e-01 2.68292000e+01 2.32027000e+01	N
atom  3.92366000e-01 2.85178000e+01 2.25456000e+01	Si
atom  1.37985000e-01 2.91102000e+01 2.41150000e+01	N
atom  1.74764000e+00 2.89688000e+01 2.16759000e+01	N
atom  1.95322000e-01 2.17927000e+01 2.58067000e+01	N
atom  1.61447000e+00 2.16841000e+01 2.67614000e+01	Si
atom  9.03479000e-01 2.50634000e+01 2.51758000e+01	N
atom  1.88916000e+00 2.06508000e+01 2.82269000e+01	N
atom  1.90449000e+00 2.50411000e+01 2.66521000e+01	Si
atom  1.73630000e+00 2.78219000e+01 2.60623000e+01	N
atom  3.17456000e-01 2.55990000e+01 2.74872000e+01	N
atom  4.23262000e-01 2.76255000e+01 2.49645000e+01	Si
atom  3.32393000e-01 2.56482000e+01 2.91682000e+01	Si
atom  6.10824000e-01 2.14311000e+01 3.04264000e+01	N
atom  1.28921000e-01 2.08025000e+01 3.41162000e+01	N
atom  4.73574000e-01 2.36135000e+01 3.44239000e+01	N
atom  -1.79974000e-01 2.30376000e+01 3.02977000e+01	Si
atom  -2.95028000e-01 2.50945000e+01 3.38778000e+01	Si
atom  9.73490000e-01 2.41239000e+01 2.96926000e+01	N
atom  2.57863000e-01 2.57480000e+01 3.23637000e+01	N
atom  1.32618000e+00 2.86681000e+01 3.02771000e+01	Si
atom  1.68467000e+00 2.83960000e+01 3.20157000e+01	N
atom  -4.73541000e-01 2.89481000e+01 2.99288000e+01	N
atom  1.23244000e+00 2.89530000e+01 3.47163000e+01	N
atom  1.72600000e+00 2.65560000e+01 3.20291000e+01	Si
atom  1.21890000e+00 2.68161000e+01 2.99607000e+01	N
atom  1.42195000e+00 2.06572000e+01 3.52500000e+01	Si
atom  5.78645000e-03 2.28676000e+01 3.75190000e+01	Si
atom  1.77867000e-01 2.18729000e+01 3.90008000e+01	N
atom  1.61882000e+00 2.29691000e+01 3.69264000e+01	N
atom  2.57635000e-01 2.99494000e+01 3.57152000e+01	Si
atom  1.84036000e+00 2.59462000e+01 3.91205000e+01	N
atom  1.39275000e+00 2.72028000e+01 3.50431000e+01	Si
atom  2.67244000e-01 2.67230000e+01 3.90724000e+01	Si
atom  -1.33577000e-01 2.64793000e+01 3.50045000e+01	N
atom  5.52321000e-01 3.02081000e+01 3.73355000e+01	N
atom  6.15051000e-01 2.84132000e+01 3.92604000e+01	N
atom  3.30461000e-01 3.25469000e+01 5.67541000e-01	Si
atom  1.23176000e+00 3.10728000e+01 1.40381000e-01	N
atom  4.53601000e-01 3.29224000e+01 4.45514000e+00	N
atom  1.55074000e+00 3.38388000e+01 9.86292000e-01	N
atom  7.60728000e-01 3.54717000e+01 1.06864000e+00	Si
atom  5.00056000e-01 3.81437000e+01 2.51121000e+00	Si
atom  8.90332000e-01 3.90169000e+01 3.96840000e+00	N
atom  9.04770000e-01 3.90968000e+01 1.13864000e+00	N
atom  1.15653000e+00 3.65275000e+01 2.40199000e+00	N
atom  1.86523000e+00 3.63415000e+01 4.01945000e+00	Si
atom  3.85161000e-01 3.59789000e+01 4.90725000e+00	N
atom  1.30244000e+00 3.66204000e+01 -1.17751000e-01	N
atom  1.15815000e+00 3.42923000e+01 5.22937000e+00	Si
atom  1.30339000e+00 3.20743000e+01 8.84835000e+00	N
atom  5.87876000e-01 3.12487000e+01 5.07384000e+00	Si
atom  9.91824000e-01 3.39158000e+01 6.86599000e+00	N
atom  1.85436000e+00 3.11697000e+01 6.31364000e+00	N
atom  -2.58372000e-01 3.60942000e+01 8.29009000e+00	N
atom  1.55425000e-01 3.95072000e+01 6.66559000e+00	N
atom  1.16408000e+00 3.69051000e+01 8.91302000e+00	Si
atom  1.78451000e+00 3.94022000e+01 7.08751000e+00	Si
atom  5.59324000e-03 4.00227000e+01 4.98477000e+00	Si
atom  2.00313000e+00 3.26018000e+01 7.36329000e+00	Si
atom  7.74608000e-01 3.02658000e+01 3.71091000e+00	N
atom  1.22816000e+00 3.32465000e+01 1.13376000e+01	N
atom  3.06399000e-01 3.16159000e+01 1.32381000e+01	N
atom  8.24145000e-01 3.46845000e+01 1.37752000e+01	N
atom  4.05944000e-01 3.32977000e+01 1.28577000e+01	Si
atom  1.45627000e+00 3.06318000e+01 1.24636000e+01	Si
atom  2.20637000e-01 3.25320000e+01 1.01200000e+01	Si
atom  -2.17469000e-01 3.11958000e+01 1.47407000e+01	Si
atom  1.22956000e-01 3.57103000e+01 1.98840000e+01	N
atom  4.56974000e-01 3.64260000e+01 1.38079000e+01	Si
atom  -9.89461000e-02 3.94307000e+01 1.07321000e+01	Si
atom  1.58451000e+00 3.73887000e+01 1.30629000e+01	N
atom  2.25745000e-01 3.78878000e+01 1.00009000e+01	N
atom  6.47320000e-01 4.01979000e+01 1.21877000e+01	N
atom  -1.15765000e-01 3.16280000e+01 1.90057000e+01	Si
atom  1.32402000e+00 3.24288000e+01 1.84139000e+01	N
atom  1.02829000e+00 3.10981000e+01 1.59069000e+01	N
atom  1.39172000e+00 3.26125000e+01 1.66847000e+01	Si
atom  8.66991000e-03 3.37243000e+01 1.65215000e+01	N
atom  1.76781000e+00 3.81152000e+01 1.79013000e+01	N
atom  5.30165000e-01 3.66838000e+01 1.55297000e+01	N
atom  1.44510000e+00 3.66699000e+01 1.91319000e+01	Si
atom  1.61824000e+00 3.57181000e+01 1.75214000e+01	N
atom  6.40884000e-02 3.53819000e+01 1.66144000e+01	Si
atom  4.52167000e-01 3.46068000e+01 2.11491000e+01	Si
atom  -2.27041000e-01 3.09127000e+01 2.05914000e+01	N
atom  -2.25196000e-01 3.06703000e+01 2.45759000e+01	Si
atom  3.16391000e-01 3.41182000e+01 2.46376000e+01	N
atom  1.77668000e+00 3.33983000e+01 2.10438000e+01	N
atom  1.45864000e+00 3.52445000e+01 2.40437000e+01	Si
atom  1.13661000e+00 3.56804000e+01 2.23609000e+01	N
atom  -6.89293000e-02 3.98477000e+01 2.40333000e+01	N
atom  1.48603000e+00 3.80710000e+01 2.05354000e+01	N
atom  -2.62555000e-01 3.06157000e+01 2.95129000e+01	Si
atom  1.87523000e-02 3.06565000e+01 2.78058000e+01	N
atom  1.15694000e+00 3.12733000e+01 2.52694000e+01	N
atom  3.69007000e-01 3.37401000e+01 2.63460000e+01	Si
atom  1.42788000e+00 3.11836000e+01 2.70497000e+01	Si
atom  1.53814000e+00 3.29346000e+01 2.73517000e+01	N
atom  3.65769000e-01 3.53775000e+01 2.89998000e+01	Si
atom  7.95166000e-01 3.90924000e+01 2.64512000e+01	N
atom  1.31124000e+00 3.97463000e+01 2.50018000e+01	Si
atom  1.33166000e-01 3.53828000e+01 2.72436000e+01	N
atom  2.59118000e-01 3.96449000e+01 2.91119000e+01	N
atom  9.53665000e-01 3.73201000e+01 2.61935000e+01	Si
atom  4.55564000e-01 3.69980000e+01 2.95579000e+01	N
atom  9.79785000e-01 3.21217000e+01 3.38906000e+01	Si
atom  2.29554000e-01 3.32090000e+01 3.10203000e+01	Si
atom  2.05439000e-01 3.33405000e+01 3.27603000e+01	N
atom  1.55235000e+00 3.43766000e+01 3.31109000e+01	Si
atom  1.62407000e+00 3.10194000e+01 3.27920000e+01	N
atom  1.39461000e+00 3.04973000e+01 3.01200000e+01	N
atom  5.72018000e-01 3.54829000e+01 3.39760000e+01	N
atom  5.19924000e-01 3.91553000e+01 3.30406000e+01	Si
atom  1.60002000e+00 3.69533000e+01 3.40884000e+01	Si
atom  1.11921000e-01 4.02531000e+01 3.17712000e+01	N
atom  4.60487000e-02 4.01060000e+01 3.43631000e+01	N
atom  1.96952000e+00 3.82639000e+01 3.29110000e+01	N
atom  1.09039000e+00 3.14977000e+01 3.83607000e+01	Si
atom  -1.48847000e-01 3.14490000e+01 3.49950000e+01	N
atom  1.97527000e-01 3.45720000e+01 3.85344000e+01	Si
atom  1.99230000e-02 3.28056000e+01 3.86346000e+01	N
atom  9.47067000e-01 3.87878000e+01 3.81083000e+01	N
atom  -1.55590000e-01 4.01057000e+01 3.78765000e+01	Si
atom  5.51511000e-01 3.81593000e+01 3.96535000e+01	Si
atom  6.28833000e-01 3.77583000e+01 3.52794000e+01	N
atom  3.67332000e+00 3.12048000e+00 1.96199000e+00	Si
atom  3.54518000e+00 3.95793000e+00 4.57038000e-01	N
atom  2.50178000e+00 1.49003000e+00 2.35759000e-01	N
atom  2.21832000e+00 3.06749000e+00 2.81930000e+00	N
atom  4.02766000e+00 5.01174000e-01 1.65233000e-01	Si
atom  2.59660000e+00 8.05298000e+00 3.99075000e+00	Si
atom  2.85598000e+00 7.13566000e+00 2.44421000e+00	N
atom  3.62222000e+00 1.61699000e+00 5.77109000e+00	Si
atom  3.69282000e+00 4.25437000e+00 6.92974000e+00	Si
atom  2.71022000e+00 2.99154000e+00 6.18550000e+00	N
atom  4.02868000e+00 3.63189000e+00 8.46223000e+00	N
atom  3.09211000e+00 3.08744000e+00 9.83431000e+00	Si
atom  2.02210000e+00 4.56062000e-01 8.56553000e+00	N
atom  2.12233000e+00 7.04191000e+00 9.71010000e+00	N
atom  3.80885000e+00 7.22579000e+00 6.65036000e+00	Si
atom  4.11840000e+00 7.88529000e+00 5.02200000e+00	N
atom  2.93817000e+00 8.49472000e+00 9.24664000e+00	Si
atom  2.87120000e+00 5.75299000e+00 6.73440000e+00	N
atom  2.81132000e+00 8.34030000e+00 7.50757000e+00	N
atom  2.82976000e+00 4.40562000e+00 1.09825000e+01	N
atom  3.50534000e+00 3.70375000e+00 1.24132000e+01	Si
atom  2.98153000e+00 2.00575000e+00 1.23750000e+01	N
atom  2.65068000e+00 4.36493000e+00 1.38183000e+01	N
atom  4.20124000e+00 1.04982000e+00 1.15764000e+01	Si
atom  4.07492000e+00 1.61436000e+00 9.90086000e+00	N
atom  2.93595000e+00 6.79865000e+00 1.23052000e+01	N
atom  3.11057000e+00 6.11016000e+00 1.06718000e+01	Si
atom  2.66471000e+00 6.08516000e+00 1.39351000e+01	Si
atom  4.16885000e+00 6.86910000e+00 1.45407000e+01	N
atom  1.90251000e+00 9.56861000e+00 1.28200000e+01	N
atom  1.88981000e+00 2.55021000e+00 1.87137000e+01	Si
atom  3.48036000e+00 2.77229000e+00 1.80008000e+01	N
atom  4.10781000e+00 4.37122000e+00 1.82403000e+01	Si
atom  1.80376000e+00 8.10317000e-01 1.91658000e+01	N
atom  2.22057000e+00 6.71232000e+00 1.82149000e+01	Si
atom  3.00537000e+00 5.45607000e+00 1.90669000e+01	N
atom  2.53097000e+00 1.00528000e+01 1.83122000e+01	N
atom  2.96382000e+00 9.97248000e+00 1.53928000e+01	N
atom  2.43432000e+00 9.12142000e+00 1.68318000e+01	Si
atom  3.30821000e+00 7.67146000e+00 1.73240000e+01	N
atom  2.67170000e+00 4.73869000e+00 2.42537000e+01	N
atom  3.80478000e+00 1.75065000e+00 2.38106000e+01	N
atom  4.00775000e+00 4.43876000e+00 2.16211000e+01	N
atom  2.71274000e+00 5.19107000e+00 2.07562000e+01	Si
atom  3.09345000e+00 6.18854000e+00 2.67434000e+01	N
atom  1.83275000e+00 3.48884000e+00 2.01531000e+01	N
atom  3.09422000e+00 7.02529000e+00 2.12690000e+01	N
atom  3.40947000e+00 6.48385000e-01 2.93196000e+01	Si
atom  2.12104000e+00 3.94248000e+00 2.87576000e+01	N
atom  3.59524000e+00 3.25927000e+00 2.64295000e+01	N
atom  2.72089000e+00 4.65211000e+00 2.59742000e+01	Si
atom  3.55101000e+00 1.74624000e+00 2.55500000e+01	Si
atom  2.30238000e+00 1.20674000e+00 2.81472000e+01	N
atom  3.22517000e+00 2.79672000e+00 2.80517000e+01	Si
atom  2.25656000e+00 9.34898000e+00 2.56649000e+01	Si
atom  3.82711000e+00 8.63424000e+00 2.54945000e+01	N
atom  3.58996000e+00 2.95015000e+00 3.41295000e+01	Si
atom  4.08449000e+00 3.00503000e+00 3.24203000e+01	N
atom  2.23220000e+00 5.17432000e+00 2.99061000e+01	Si
atom  2.06811000e+00 2.12426000e+00 3.45005000e+01	N
atom  3.45961000e+00 5.44897000e+00 3.10630000e+01	N
atom  3.39817000e+00 7.15042000e+00 3.17041000e+01	Si
atom  3.68870000e+00 8.58802000e+00 3.46706000e+01	Si
atom  4.16432000e+00 1.03385000e+01 3.44246000e+01	N
atom  4.11537000e+00 8.04004000e+00 3.30632000e+01	N
atom  1.96014000e+00 1.01664000e+01 3.24549000e+01	N
atom  3.41997000e+00 4.53539000e+00 3.67455000e+01	Si
atom  3.37781000e+00 3.10305000e+00 3.77854000e+01	N
atom  2.53728000e+00 2.99281000e+00 3.92904000e+01	Si
atom  4.09977000e+00 4.24228000e+00 3.51842000e+01	N
atom  3.72341000e+00 5.51185000e+00 3.95253000e+01	Si
atom  4.29730000e+00 5.58020000e+00 3.78443000e+01	N
atom  3.79136000e+00 9.03853000e+00 3.84458000e+01	N
atom  2.05783000e+00 8.79010000e+00 3.86032000e+01	Si
atom  2.09159000e+00 6.17186000e+00 3.95231000e+01	N
atom  1.94354000e+00 8.69862000e+00 3.46912000e+01	N
atom  2.75811000e+00 1.47884000e+01 3.15573000e+00	N
atom  2.18853000e+00 1.35927000e+01 4.29997000e+00	Si
atom  3.41452000e+00 1.42253000e+01 -2.04134000e-01	N
atom  2.03491000e+00 1.67924000e+01 1.38252000e+00	N
atom  2.91967000e+00 1.84071000e+01 3.58526000e+00	N
atom  3.30476000e+00 1.77558000e+01 2.01961000e+00	Si
atom  4.00604000e+00 1.91252000e+01 1.18741000e+00	N
atom  3.35319000e+00 2.00366000e+01 4.36221000e+00	Si
atom  4.24787000e+00 1.56230000e+01 3.43199000e+00	Si
atom  3.60816000e+00 1.29409000e+01 4.98260000e+00	N
atom  3.66614000e+00 1.46871000e+01 8.42132000e+00	N
atom  3.19023000e+00 1.16535000e+01 6.08307000e+00	Si
atom  2.39935000e+00 1.26709000e+01 7.22068000e+00	N
atom  3.32838000e+00 1.30047000e+01 8.56788000e+00	Si
atom  2.09763000e+00 1.03741000e+01 5.63833000e+00	N
atom  2.19691000e+00 1.49140000e+01 9.37224000e+00	Si
atom  3.01223000e+00 1.77382000e+01 5.22343000e+00	Si
atom  2.91884000e+00 1.79762000e+01 8.50484000e+00	N
atom  3.57140000e+00 1.93978000e+01 7.66363000e+00	Si
atom  3.49099000e+00 1.93377000e+01 5.91687000e+00	N
atom  4.22481000e+00 1.65878000e+01 4.88135000e+00	N
atom  3.46000000e+00 1.19775000e+01 1.35307000e+01	N
atom  3.19879000e+00 1.25336000e+01 1.17752000e+01	Si
atom  3.58070000e+00 1.09958000e+01 1.10464000e+01	N
atom  2.81987000e+00 1.45701000e+01 1.32237000e+01	N
atom  3.51413000e+00 1.35057000e+01 1.45393000e+01	Si
atom  2.25429000e+00 1.07744000e+01 1.39956000e+01	Si
atom  1.94288000e+00 1.04075000e+01 1.12853000e+01	Si
atom  2.71090000e+00 1.55453000e+01 1.64738000e+01	Si
atom  3.67461000e+00 1.51601000e+01 1.19160000e+01	Si
atom  1.91693000e+00 1.84453000e+01 1.11311000e+01	N
atom  3.13261000e+00 1.75942000e+01 1.02119000e+01	Si
atom  2.48338000e+00 1.96130000e+01 1.22681000e+01	Si
atom  3.39600000e+00 1.89396000e+01 1.36336000e+01	N
atom  2.77811000e+00 1.59470000e+01 1.06549000e+01	N
atom  4.22015000e+00 1.04440000e+01 1.86725000e+01	Si
atom  3.71478000e+00 1.47214000e+01 1.75035000e+01	N
atom  3.54111000e+00 1.29551000e+01 1.74661000e+01	Si
atom  2.01784000e+00 1.42691000e+01 1.54483000e+01	N
atom  2.08284000e+00 1.88919000e+01 1.60061000e+01	N
atom  3.48977000e+00 1.82985000e+01 1.52458000e+01	Si
atom  3.60819000e+00 1.65590000e+01 1.53854000e+01	N
atom  4.32225000e+00 1.37114000e+01 1.12408000e+01	N
atom  4.23756000e+00 1.21756000e+01 1.87970000e+01	N
atom  3.50763000e+00 1.15690000e+01 2.14574000e+01	N
atom  2.97515000e+00 1.40944000e+01 2.01977000e+01	N
atom  4.03765000e+00 1.27964000e+01 2.03765000e+01	Si
atom  3.69912000e+00 1.56748000e+01 2.03218000e+01	Si
atom  3.84674000e+00 1.68458000e+01 2.32533000e+01	Si
atom  2.27849000e+00 1.75366000e+01 2.30072000e+01	N
atom  2.20609000e+00 1.66134000e+01 2.02072000e+01	N
atom  2.65012000e+00 2.00323000e+01 1.98801000e+01	Si
atom  4.02483000e+00 1.90225000e+01 2.02397000e+01	N
atom  4.26385000e+00 1.57706000e+01 2.19955000e+01	N
atom  3.88400000e+00 1.60274000e+01 2.47096000e+01	N
atom  2.44345000e+00 1.42012000e+01 2.69591000e+01	Si
atom  3.60902000e+00 1.35230000e+01 2.59491000e+01	N
atom  3.72062000e+00 1.17620000e+01 2.59010000e+01	Si
atom  2.38947000e+00 1.36361000e+01 2.87309000e+01	N
atom  2.15070000e+00 1.10818000e+01 2.56703000e+01	N
atom  4.24733000e+00 1.12211000e+01 2.74443000e+01	N
atom  3.80662000e+00 1.40815000e+01 2.97843000e+01	Si
atom  3.41794000e+00 1.99589000e+01 2.48184000e+01	Si
atom  4.14220000e+00 1.93125000e+01 2.88366000e+01	Si
atom  2.85902000e+00 1.84195000e+01 2.53947000e+01	N
atom  2.94469000e+00 1.65483000e+01 2.86827000e+01	Si
atom  2.95743000e+00 1.81880000e+01 2.82580000e+01	N
atom  3.63543000e+00 1.70314000e+01 2.61129000e+01	Si
atom  2.68283000e+00 1.58904000e+01 2.70883000e+01	N
atom  3.40737000e+00 1.45535000e+01 3.14161000e+01	N
atom  3.22292000e+00 1.43589000e+01 3.40696000e+01	N
atom  2.85086000e+00 1.12191000e+01 3.36496000e+01	Si
atom  3.78320000e+00 1.20538000e+01 3.24473000e+01	N
atom  4.11182000e+00 1.37085000e+01 3.27664000e+01	Si
atom  3.29058000e+00 1.05582000e+01 2.99273000e+01	N
atom  2.68866000e+00 1.60804000e+01 3.16924000e+01	Si
atom  3.66032000e+00 1.73214000e+01 3.24745000e+01	N
atom  2.68717000e+00 1.86375000e+01 3.31922000e+01	Si
atom  3.76915000e+00 2.00354000e+01 3.30547000e+01	N
atom  3.46950000e+00 1.99597000e+01 3.03006000e+01	N
atom  2.00031000e+00 1.66306000e+01 3.01791000e+01	N
atom  2.19251000e+00 1.21204000e+01 3.50077000e+01	N
atom  3.57017000e+00 1.15697000e+01 3.94279000e+01	N
atom  2.27010000e+00 1.43786000e+01 3.84618000e+01	Si
atom  2.88209000e+00 1.44806000e+01 3.68192000e+01	N
atom  3.36491000e+00 1.34996000e+01 3.55079000e+01	Si
atom  2.43416000e+00 1.61488000e+01 3.67514000e+01	Si
atom  1.87144000e+00 1.88594000e+01 3.47763000e+01	N
atom  3.00483000e+00 1.90575000e+01 3.62023000e+01	Si
atom  3.39575000e+00 1.75532000e+01 3.68946000e+01	N
atom  2.69645000e+00 2.49264000e+01 3.78583000e-01	Si
atom  2.13864000e+00 2.14404000e+01 4.37639000e+00	N
atom  2.16832000e+00 2.47565000e+01 4.06316000e+00	N
atom  4.16290000e+00 2.32361000e+01 4.50820000e+00	N
atom  2.60247000e+00 2.63073000e+01 3.22513000e+00	Si
atom  2.21179000e+00 2.93180000e+01 3.32424000e+00	Si
atom  2.22330000e+00 2.92758000e+01 1.58038000e+00	N
atom  2.02901000e+00 2.59054000e+01 1.73279000e+00	N
atom  3.64501000e+00 3.01495000e+01 3.93213000e+00	N
atom  2.47652000e+00 2.30804000e+01 4.96313000e+00	Si
atom  2.58262000e+00 2.34105000e+01 6.66717000e+00	N
atom  2.88177000e+00 2.09187000e+01 8.02402000e+00	N
atom  3.64481000e+00 2.25016000e+01 7.70523000e+00	Si
atom  3.02549000e+00 2.51059000e+01 7.39946000e+00	Si
atom  4.06983000e+00 2.40858000e+01 8.44239000e+00	N
atom  2.30094000e+00 2.95423000e+01 6.94446000e+00	Si
atom  3.79991000e+00 2.57669000e+01 5.99666000e+00	N
atom  2.64192000e+00 2.96246000e+01 8.70588000e+00	N
atom  2.77902000e+00 2.78664000e+01 9.18417000e+00	Si
atom  3.76774000e+00 2.86783000e+01 6.40912000e+00	N
atom  3.80039000e+00 2.66481000e+01 8.39169000e+00	N
atom  3.97910000e+00 2.03497000e+01 -3.80955000e-02	Si
atom  2.60493000e+00 2.32703000e+01 1.36145000e+01	N
atom  2.94767000e+00 2.27695000e+01 1.08958000e+01	N
atom  3.54537000e+00 2.39143000e+01 1.21928000e+01	Si
atom  4.02426000e+00 2.03129000e+01 1.16036000e+01	N
atom  3.88696000e+00 2.52112000e+01 1.10261000e+01	N
atom  3.77128000e+00 2.53766000e+01 1.34612000e+01	N
atom  3.46908000e+00 2.78148000e+01 1.07620000e+01	N
atom  3.13321000e+00 2.86263000e+01 1.39218000e+01	Si
atom  3.20091000e+00 2.65667000e+01 1.19736000e+01	Si
atom  3.85708000e+00 3.00575000e+01 1.46342000e+01	N
atom  3.00235000e+00 2.44824000e+01 1.47881000e+01	Si
atom  2.45132000e+00 2.33111000e+01 1.79390000e+01	N
atom  3.80060000e+00 2.12268000e+01 1.65752000e+01	N
atom  3.83912000e+00 2.28455000e+01 1.71194000e+01	Si
atom  2.19268000e+00 2.04733000e+01 1.66278000e+01	Si
atom  2.80932000e+00 2.78645000e+01 1.54681000e+01	N
atom  4.29369000e+00 2.39297000e+01 1.58409000e+01	N