lattice_vector  3.99314670e+01 0.00000000e+00 0.00000000e+00
lattice_vector  2.44509716e-15 3.99314670e+01 0.00000000e+00
lattice_vector  2.44509716e-15 2.44509716e-15 3.99314670e+01
atom  4.50074000e-01 3.23518000e+00 1.39534000e+00	N
atom  1.23480000e+00 2.18573000e+00 2.56617000e+00	Si
atom  -4.19591000e-02 1.30919000e+00 3.43435000e+00	N
atom  1.61968000e+00 3.49217000e+00 7.41248000e-02	Si
atom  1.82654000e+00 8.00872000e-01 1.67475000e+00	N
atom  2.48370000e-01 9.61472000e+00 5.03696000e-01	N
atom  9.02537000e-01 9.64613000e+00 3.23572000e+00	N
atom  2.76166000e-01 8.69790000e+00 1.93438000e+00	Si
atom  9.20867000e-01 6.20744000e+00 5.03798000e-01	Si
atom  1.56915000e+00 7.40022000e+00 1.65201000e+00	N
atom  -2.01481000e-01 1.00252000e+01 4.51733000e+00	Si
atom  2.79084000e-01 1.14978000e+00 7.49710000e+00	Si
atom  7.17236000e-01 5.16269000e+00 6.31863000e+00	Si
atom  -1.35511000e-01 6.46402000e+00 7.00813000e+00	N
atom  5.71630000e-01 8.64478000e+00 8.31045000e+00	N
atom  1.63467000e+00 5.86497000e+00 4.90451000e+00	N
atom  2.11807000e-01 8.19418000e+00 6.69675000e+00	Si
atom  1.74857000e+00 8.56580000e+00 5.95509000e+00	N
atom  1.20544000e+00 1.15618000e+00 1.02722000e+01	N
atom  1.64223000e+00 1.12612000e+00 1.42749000e+01	N
atom  8.41584000e-02 3.68802000e+00 1.05016000e+01	N
atom  -2.26483000e-01 2.03721000e+00 1.00915000e+01	Si
atom  2.23895000e-02 7.94486000e-01 1.47870000e+01	Si
atom  3.30009000e-01 5.27198000e+00 1.09122000e+01	Si
atom  6.68156000e-01 5.72209000e+00 1.39193000e+01	Si
atom  1.20655000e+00 7.99681000e+00 1.09535000e+01	N
atom  1.17937000e+00 8.70557000e+00 1.25644000e+01	Si
atom  1.40086000e+00 7.31576000e+00 1.37018000e+01	N
atom  -3.34076000e-01 5.57466000e+00 1.25315000e+01	N
atom  -6.32465000e-02 8.08848000e+00 9.81565000e+00	Si
atom  -3.48321000e-01 6.38786000e+00 9.76194000e+00	N
atom  1.38728000e+00 3.10331000e+00 1.60855000e+01	N
atom  1.08623000e+00 4.60977000e+00 1.80239000e+01	N
atom  7.14691000e-01 2.94413000e+00 1.76789000e+01	Si
atom  -1.00235000e-01 5.11192000e+00 1.53199000e+01	N
atom  1.05452000e+00 5.03870000e+00 1.96816000e+01	Si
atom  1.64746000e+00 1.81316000e+00 1.86178000e+01	N
atom  -2.88089000e-01 3.41689000e+00 1.54633000e+01	Si
atom  1.82870000e-01 4.30615000e-01 1.65389000e+01	N
atom  1.80283000e+00 4.93908000e+00 1.63533000e+01	Si
atom  4.39525000e-01 9.06089000e+00 1.53672000e+01	N
atom  1.22496000e+00 6.72596000e+00 1.95538000e+01	N
atom  1.25871000e+00 8.92365000e+00 1.80677000e+01	N
atom  5.96345000e-02 1.00896000e+01 1.83506000e+01	Si
atom  8.92964000e-01 7.14174000e+00 1.79033000e+01	Si
atom  1.77930000e+00 6.71570000e+00 1.64497000e+01	N
atom  1.84010000e+00 7.97460000e+00 1.52876000e+01	Si
atom  5.24191000e-01 2.01613000e+00 2.15375000e+01	N
atom  6.10272000e-01 3.28619000e+00 2.39966000e+01	N
atom  -1.19504000e-01 4.70001000e+00 2.45592000e+01	Si
atom  1.21486000e+00 6.50585000e-01 2.34475000e+01	N
atom  -1.87906000e-01 1.92296000e+00 2.31658000e+01	Si
atom  -4.62679000e-01 4.50535000e+00 2.03911000e+01	N
atom  1.09050000e+00 9.95817000e+00 2.10846000e+01	Si
atom  1.55762000e-01 8.49050000e+00 2.13998000e+01	N
atom  1.30803000e+00 8.52571000e+00 2.40974000e+01	N
atom  1.17001000e+00 5.84991000e+00 2.44063000e+01	N
atom  1.67378000e+00 7.58189000e+00 2.10251000e+01	Si
atom  5.99389000e-01 4.37121000e+00 2.88279000e+01	N
atom  1.75719000e-01 1.40278000e+00 2.58747000e+01	N
atom  1.54805000e+00 6.58120000e-01 2.52196000e+01	Si
atom  -2.61251000e-01 4.41488000e+00 2.62258000e+01	N
atom  1.98154000e-01 5.44891000e+00 2.75630000e+01	Si
atom  2.08222000e-02 9.23805000e+00 2.52105000e+01	Si
atom  1.05324000e+00 9.77944000e+00 2.81982000e+01	Si
atom  1.51218000e+00 6.38463000e+00 2.71160000e+01	N
atom  1.68392000e+00 8.46239000e+00 2.92763000e+01	N
atom  4.52502000e-02 9.20136000e+00 2.69227000e+01	N
atom  5.07038000e-01 4.88000000e+00 3.34221000e+01	Si
atom  1.07713000e+00 1.75765000e+00 3.35961000e+01	Si
atom  1.24507000e+00 3.31740000e+00 3.29973000e+01	N
atom  9.85284000e-01 8.01369000e-01 3.08622000e+01	Si
atom  3.04597000e-01 2.36161000e+00 3.04352000e+01	N
atom  1.12272000e+00 3.57870000e+00 3.13033000e+01	Si
atom  1.08347000e-01 5.02835000e+00 3.16973000e+01	N
atom  5.26984000e-01 4.95889000e-01 3.25298000e+01	N
atom  1.66263000e-01 8.18134000e+00 3.17837000e+01	N
atom  1.18035000e+00 6.41626000e+00 3.39645000e+01	N
atom  9.34357000e-01 9.21719000e+00 3.06752000e+01	Si
atom  1.47300000e+00 7.54766000e+00 3.27307000e+01	Si
atom  -2.60425000e-01 1.83234000e+00 3.47312000e+01	N
atom  1.55760000e-02 6.86813000e-01 3.77706000e+01	N
atom  5.12987000e-01 4.25817000e+00 3.88323000e+01	N
atom  1.26644000e+00 3.13318000e+00 3.65045000e+01	N
atom  1.54605000e+00 4.48550000e+00 3.74856000e+01	Si
atom  1.46154000e+00 1.58963000e+00 3.73240000e+01	Si
atom  -3.44829000e-01 3.24637000e+00 3.56745000e+01	Si
atom  1.78764000e+00 6.68242000e+00 3.55165000e+01	Si
atom  1.28229000e+00 8.79319000e+00 3.92327000e+01	Si
atom  5.46742000e-01 7.28312000e+00 3.90649000e+01	N
atom  8.23387000e-01 5.90701000e+00 3.67710000e+01	N
atom  1.63518000e+00 8.34426000e+00 3.60625000e+01	N
atom  -3.64289000e-01 6.73396000e+00 3.76906000e+01	Si
atom  4.04413000e-01 9.45128000e+00 3.67902000e+01	Si
atom  1.14592000e+00 1.02747000e+01 3.81456000e+01	N
atom  1.37412000e+00 1.37782000e+01 5.97356000e-01	Si
atom  2.10832000e-01 1.42776000e+01 1.70563000e+00	N
atom  1.29629000e+00 1.20609000e+01 4.53383000e-01	N
atom  1.89944000e+00 1.50695000e+01 4.59420000e+00	Si
atom  3.06383000e-01 1.56120000e+01 4.28105000e+00	N
atom  1.05092000e+00 1.73611000e+01 2.15332000e+00	N
atom  -2.73566000e-01 1.68265000e+01 3.12231000e+00	Si
atom  -2.61165000e-01 1.85437000e+01 1.16256000e-01	Si
atom  1.50378000e+00 1.79668000e+01 4.78984000e+00	N
atom  1.26333000e+00 1.43186000e+01 7.29277000e+00	Si
atom  3.79710000e-01 1.12927000e+01 5.56965000e+00	N
atom  1.47145000e+00 1.50885000e+01 8.75074000e+00	N
atom  8.14279000e-02 1.89267000e+01 5.19855000e+00	Si
atom  1.20299000e+00 1.72077000e+01 6.45030000e+00	Si
atom  -3.80524000e-01 1.81265000e+01 6.72125000e+00	N
atom  3.91771000e-01 1.98302000e+01 9.31784000e+00	N
atom  1.92789000e+00 1.55945000e+01 6.30076000e+00	N
atom  8.01516000e-01 1.40077000e+01 1.34503000e+01	N
atom  1.09405000e+00 1.33388000e+01 1.18189000e+01	Si
atom  1.30014000e-03 1.22253000e+01 1.10373000e+01	N
atom  1.74227000e+00 1.04118000e+01 1.01151000e+01	N
atom  1.26173000e+00 1.16047000e+01 1.46209000e+01	N
atom  1.59664000e-01 1.09734000e+01 9.85092000e+00	Si
atom  2.07727000e+00 1.47375000e+01 1.11223000e+01	N
atom  -1.56206000e-01 1.52675000e+01 1.29124000e+01	Si
atom  6.11225000e-01 1.54064000e+01 1.02605000e+01	Si
atom  2.70823000e-01 1.81368000e+01 1.17250000e+01	Si
atom  3.52855000e-01 1.69440000e+01 1.30269000e+01	N
atom  6.66278000e-02 1.70813000e+01 1.04152000e+01	N
atom  2.47907000e-01 1.76469000e+01 1.47282000e+01	Si
atom  1.66781000e+00 1.90696000e+01 1.18055000e+01	N
atom  1.82799000e+00 1.99159000e+01 1.03316000e+01	Si
atom  8.64928000e-01 1.32490000e+01 1.50107000e+01	Si
atom  2.99711000e-01 1.12734000e+01 1.70476000e+01	N
atom  1.26374000e+00 1.05039000e+01 1.58778000e+01	Si
atom  3.82875000e-01 1.25986000e+01 1.96738000e+01	Si
atom  4.15509000e-01 1.08570000e+01 1.98175000e+01	N
atom  1.26875000e+00 1.56835000e+01 1.82115000e+01	N
atom  1.71605000e+00 1.85462000e+01 1.47458000e+01	N
atom  3.88172000e-01 1.69679000e+01 1.74351000e+01	Si
atom  6.46122000e-02 1.64042000e+01 1.58634000e+01	N
atom  1.84159000e+00 1.79824000e+01 1.74310000e+01	N
atom  5.77344000e-01 1.35503000e+01 2.11902000e+01	N
atom  5.69525000e-01 1.29868000e+01 2.38691000e+01	N
atom  1.52212000e+00 1.26085000e+01 2.24875000e+01	Si
atom  1.21749000e+00 1.08680000e+01 2.25326000e+01	N
atom  1.46740000e+00 1.43925000e+01 2.45808000e+01	Si
atom  -4.64775000e-01 1.48601000e+01 2.13937000e+01	Si
atom  4.54760000e-01 1.62686000e+01 2.15955000e+01	N
atom  7.98792000e-01 1.90402000e+01 2.11502000e+01	N
atom  6.92897000e-01 1.96660000e+01 2.35652000e+01	Si
atom  -4.30333000e-01 1.77968000e+01 2.16729000e+01	Si
atom  -5.78340000e-01 1.85276000e+01 2.32087000e+01	N
atom  -7.26539000e-02 1.18688000e+01 2.49925000e+01	Si
atom  1.32027000e+00 1.07614000e+01 2.52245000e+01	N
atom  1.13511000e-01 1.03716000e+01 2.95733000e+01	N
atom  1.60542000e-01 1.53166000e+01 2.51562000e+01	N
atom  -8.61554000e-02 1.61059000e+01 2.67000000e+01	Si
atom  1.34740000e+00 1.62135000e+01 2.75417000e+01	N
atom  6.45340000e-01 1.87840000e+01 2.85003000e+01	N
atom  2.45550000e-01 1.99148000e+01 2.51849000e+01	N
atom  7.84013000e-01 1.90427000e+01 2.66496000e+01	Si
atom  1.41191000e+00 1.60381000e+01 2.92048000e+01	Si
atom  -4.05999000e-01 1.77911000e+01 2.62568000e+01	N
atom  4.04503000e-01 1.24327000e+01 3.37079000e+01	N
atom  1.26516000e+00 1.43158000e+01 3.08120000e+01	Si
atom  1.07035000e+00 1.26702000e+01 3.07749000e+01	N
atom  3.63427000e-02 1.52038000e+01 2.99116000e+01	N
atom  -3.99868000e-01 1.18386000e+01 3.03677000e+01	Si
atom  1.57196000e+00 1.53601000e+01 3.21973000e+01	N
atom  1.61189000e-01 1.54654000e+01 3.31709000e+01	Si
atom  4.89930000e-01 1.83374000e+01 3.35812000e+01	Si
atom  1.07413000e-01 1.98544000e+01 3.28538000e+01	N
atom  1.74153000e+00 1.99239000e+01 3.22739000e+01	Si
atom  -4.45780000e-01 1.70424000e+01 3.29516000e+01	N
atom  5.48069000e-01 1.52087000e+01 3.48315000e+01	N
atom  -4.60368000e-02 1.07549000e+01 3.57792000e+01	N
atom  1.08208000e+00 1.18245000e+01 3.51241000e+01	Si
atom  1.96355000e-01 1.10653000e+01 3.94682000e+01	Si
atom  8.62705000e-01 1.43782000e+01 3.89366000e+01	N
atom  7.83870000e-01 1.73300000e+01 3.94094000e+01	N
atom  -1.52396000e-01 2.00923000e+01 3.91434000e+01	N
atom  5.81824000e-01 1.85593000e+01 3.53453000e+01	N
atom  1.55385000e+00 1.59183000e+01 3.86071000e+01	Si
atom  1.12786000e+00 2.42634000e+01 1.05344000e+00	N
atom  1.31408000e+00 2.25982000e+01 3.52106000e+00	N
atom  2.00129000e-01 2.48798000e+01 3.44867000e+00	N
atom  9.11586000e-01 2.39003000e+01 4.56864000e+00	Si
atom  8.32906000e-01 2.29222000e+01 -9.32220000e-02	Si
atom  1.79626000e+00 2.18710000e+01 8.68890000e-01	N
atom  1.95001000e+00 2.10815000e+01 4.07191000e+00	Si
atom  -1.22810000e-01 2.54203000e+01 1.78749000e+00	Si
atom  2.05027000e-01 2.83272000e+01 4.41836000e-01	Si
atom  3.87402000e-01 2.89340000e+01 3.49427000e+00	N
atom  7.71793000e-01 2.68081000e+01 1.03268000e+00	N
atom  1.32311000e+00 2.96156000e+01 7.76608000e-01	N
atom  1.18527000e+00 3.01992000e+01 2.42530000e+00	Si
atom  8.52910000e-01 2.80773000e+01 4.87751000e+00	Si
atom  1.32608000e+00 2.19035000e+01 7.70106000e+00	N
atom  3.50859000e-01 2.15451000e+01 9.14471000e+00	Si
atom  2.62916000e-01 2.16885000e+01 6.43574000e+00	Si
atom  -1.38642000e-01 2.32596000e+01 5.78688000e+00	N
atom  6.81861000e-01 2.05793000e+01 5.25833000e+00	N
atom  3.04622000e-01 3.00250000e+01 7.48390000e+00	Si
atom  -2.57915000e-01 2.68519000e+01 5.32351000e+00	N
atom  9.36074000e-01 2.77412000e+01 9.39172000e+00	Si
atom  7.87121000e-01 2.85928000e+01 6.56382000e+00	N
atom  3.23172000e-01 2.29993000e+01 1.32560000e+01	Si
atom  8.88622000e-01 2.45739000e+01 1.35379000e+01	N
atom  1.77164000e+00 2.17329000e+01 1.01364000e+01	N
atom  -3.31545000e-01 2.20896000e+01 1.46536000e+01	N
atom  7.95434000e-01 2.84349000e+01 1.10567000e+01	N
atom  9.72928000e-01 2.68768000e+01 1.17543000e+01	Si
atom  9.17447000e-02 2.59699000e+01 1.41620000e+01	Si
atom  1.17037000e+00 2.62024000e+01 1.01663000e+01	N
atom  1.41476000e-01 3.00308000e+01 1.09161000e+01	Si
atom  -1.95885000e-01 2.92699000e+01 1.36532000e+01	N
atom  -4.32263000e-01 2.67466000e+01 1.27145000e+01	N
atom  5.27248000e-01 2.43444000e+01 1.82911000e+01	Si
atom  7.96253000e-01 2.21773000e+01 1.60088000e+01	Si
atom  1.93305000e-01 2.27832000e+01 1.75839000e+01	N
atom  4.06589000e-01 2.11985000e+01 1.81789000e+01	Si
atom  1.06255000e+00 2.06243000e+01 1.66739000e+01	N
atom  1.13059000e+00 2.13892000e+01 1.96863000e+01	N
atom  1.22611000e+00 2.67616000e+01 1.52192000e+01	N
atom  6.11578000e-01 2.83173000e+01 1.83451000e+01	N
atom  1.78129000e-02 2.58119000e+01 1.74659000e+01	N
atom  1.36800000e+00 2.97794000e+01 1.88409000e+01	Si
atom  7.36338000e-01 2.74108000e+01 1.68253000e+01	Si
atom  7.35538000e-01 2.26396000e+01 2.33363000e+01	Si
atom  3.94984000e-01 2.11376000e+01 2.26174000e+01	N
atom  8.46676000e-01 2.49216000e+01 2.12047000e+01	Si
atom  1.58200000e+00 2.36727000e+01 2.22012000e+01	N
atom  1.21608000e-01 2.06771000e+01 2.09515000e+01	Si
atom  1.60845000e+00 2.22086000e+01 2.47576000e+01	N
atom  -1.60587000e-01 2.42508000e+01 1.99027000e+01	N
atom  -4.16260000e-01 2.55000000e+01 2.22306000e+01	N
atom  1.55774000e+00 2.71701000e+01 2.31823000e+01	N
atom  9.16444000e-01 2.86516000e+01 2.25734000e+01	Si
atom  2.82648000e-02 2.81657000e+01 2.12155000e+01	N
atom  -4.10791000e-01 2.91997000e+01 2.36284000e+01	N
atom  9.55270000e-01 2.67016000e+01 2.47642000e+01	Si
atom  1.71141000e+00 2.44558000e+01 2.93256000e+01	Si
atom  1.49322000e+00 2.26953000e+01 2.96433000e+01	N
atom  1.54288000e+00 2.06751000e+01 2.71254000e+01	N
atom  4.81127000e-01 2.15911000e+01 2.59183000e+01	Si
atom  1.04972000e+00 2.31470000e+01 2.71097000e+01	N
atom  1.72010000e-01 2.51400000e+01 2.87371000e+01	N
atom  9.55263000e-01 2.81218000e+01 2.57456000e+01	N
atom  1.18289000e+00 2.77149000e+01 2.86764000e+01	N
atom  -3.56009000e-01 2.68303000e+01 2.88784000e+01	Si
atom  1.71817000e+00 2.52406000e+01 2.53676000e+01	N
atom  2.41254000e-01 2.96369000e+01 2.51446000e+01	Si
atom  9.04929000e-01 2.28753000e+01 3.30383000e+01	Si
atom  -1.15387000e-01 2.30770000e+01 3.16284000e+01	N
atom  -1.56624000e-01 2.21720000e+01 3.01455000e+01	Si
atom  1.96926000e+00 2.41184000e+01 3.35062000e+01	N
atom  -8.29549000e-02 2.75113000e+01 3.17694000e+01	Si
atom  3.88351000e-01 2.61186000e+01 3.26757000e+01	N
atom  1.40548000e+00 2.82060000e+01 3.13157000e+01	N
atom  -3.06651000e-01 2.95882000e+01 3.43487000e+01	Si
atom  1.39493000e+00 2.98705000e+01 3.45835000e+01	N
atom  1.95871000e+00 2.54639000e+01 3.24179000e+01	Si
atom  7.80645000e-01 2.40696000e+01 3.60820000e+01	N
atom  1.25910000e+00 2.08079000e+01 3.68104000e+01	N
atom  -2.45872000e-01 2.06772000e+01 3.75481000e+01	Si
atom  5.18968000e-01 2.50386000e+01 3.74416000e+01	Si
atom  1.82769000e+00 2.31584000e+01 3.84639000e+01	N
atom  1.52396000e-01 2.81150000e+01 3.87121000e+01	N
atom  1.85734000e+00 2.57449000e+01 3.81512000e+01	N
atom  1.52281000e+00 2.81593000e+01 3.66083000e+01	N
atom  -2.26766000e-01 2.80979000e+01 3.69564000e+01	Si
atom  1.71445000e+00 2.73902000e+01 3.81830000e+01	Si
atom  3.21594000e-01 3.16909000e+01 2.12952000e+00	N
atom  3.51461000e-01 3.28744000e+01 3.36901000e+00	Si
atom  1.78157000e+00 3.38350000e+01 3.70197000e+00	N
atom  3.33726000e-01 3.59538000e+01 2.53283000e+00	N
atom  8.36049000e-01 3.87882000e+01 3.37487000e+00	N
atom  9.16280000e-01 3.92452000e+01 1.70240000e+00	Si
atom  1.09611000e+00 3.64948000e+01 1.05280000e+00	Si
atom  9.34740000e-02 3.99255000e+01 4.56819000e+00	Si
atom  1.63542000e+00 3.55408000e+01 3.54229000e+00	Si
atom  -3.22412000e-01 3.93471000e+01 4.76284000e-01	N
atom  1.97415000e+00 3.79987000e+01 1.07596000e+00	N
atom  -3.70120000e-01 3.64734000e+01 1.42535000e-01	N
atom  1.62248000e+00 3.44155000e+01 6.57619000e+00	N
atom  4.96826000e-01 3.21677000e+01 4.89839000e+00	N
atom  1.31542000e+00 3.32018000e+01 9.06019000e+00	N
atom  5.09826000e-01 3.41682000e+01 7.87148000e+00	Si
atom  1.58607000e+00 3.15067000e+01 9.01099000e+00	Si
atom  1.68122000e+00 3.11241000e+01 7.27438000e+00	N
atom  2.09444000e-01 3.04054000e+01 9.25342000e+00	N
atom  1.93354000e+00 3.31578000e+01 5.31636000e+00	Si
atom  -2.81197000e-01 3.54287000e+01 8.81446000e+00	N
atom  1.43466000e+00 3.92385000e+01 5.74691000e+00	N
atom  2.90527000e-01 3.94714000e+01 8.22025000e+00	N
atom  5.65604000e-01 3.82784000e+01 6.95115000e+00	Si
atom  1.06896000e+00 3.10821000e+01 1.20231000e+01	N
atom  4.54290000e-01 3.08903000e+01 1.36072000e+01	Si
atom  8.56527000e-02 3.42523000e+01 1.20110000e+01	N
atom  9.24507000e-01 3.50821000e+01 1.33224000e+01	Si
atom  8.40804000e-02 3.52422000e+01 1.05820000e+01	Si
atom  1.06029000e-01 3.66107000e+01 1.37035000e+01	N
atom  8.82419000e-01 3.94762000e+01 9.81287000e+00	Si
atom  -3.48586000e-01 3.89108000e+01 1.09304000e+01	N
atom  9.68251000e-01 3.43446000e+01 1.48688000e+01	N
atom  1.45047000e+00 3.07811000e+01 1.49971000e+01	N
atom  1.00415000e-02 3.43914000e+01 1.63169000e+01	Si
atom  1.12403000e+00 3.18285000e+01 1.63359000e+01	Si
atom  -3.19603000e-01 3.27445000e+01 1.66021000e+01	N
atom  1.63004000e+00 3.10637000e+01 1.77633000e+01	N
atom  1.00213000e+00 3.49927000e+01 1.76815000e+01	N
atom  6.43380000e-02 3.56187000e+01 1.89293000e+01	Si
atom  1.62312000e+00 4.02594000e+01 1.76457000e+01	Si
atom  7.71939000e-01 3.24825000e+01 2.21806000e+01	N
atom  1.55088000e+00 3.11847000e+01 2.12843000e+01	Si
atom  1.62879000e+00 3.39280000e+01 2.27287000e+01	Si
atom  4.56769000e-01 3.06046000e+01 2.00475000e+01	N
atom  1.81661000e+00 3.35455000e+01 2.43881000e+01	N
atom  -4.27818000e-01 3.45884000e+01 2.02413000e+01	N
atom  7.65574000e-01 3.54552000e+01 2.28216000e+01	N
atom  -4.74351000e-02 3.57676000e+01 2.14219000e+01	Si
atom  1.04075000e+00 3.66351000e+01 2.02563000e+01	N
atom  1.05503000e+00 3.68253000e+01 2.40046000e+01	Si
atom  -6.73129000e-02 3.92574000e+01 2.38394000e+01	Si
atom  -4.84316000e-01 3.76360000e+01 2.36273000e+01	N
atom  1.21898000e+00 3.83715000e+01 2.00208000e+01	Si
atom  -2.26901000e-01 3.92692000e+01 1.99363000e+01	N
atom  1.45850000e+00 3.09038000e+01 2.50798000e+01	N
atom  1.54427000e+00 3.20956000e+01 2.89544000e+01	N
atom  6.06993000e-01 3.23962000e+01 2.51522000e+01	Si
atom  7.60470000e-02 3.26471000e+01 2.67895000e+01	N
atom  1.20150000e+00 3.34196000e+01 2.78518000e+01	Si
atom  6.80147000e-01 3.50036000e+01 2.83692000e+01	N
atom  1.13586000e+00 3.82176000e+01 2.93240000e+01	Si
atom  3.30561000e-01 3.96308000e+01 2.68686000e+01	Si
atom  4.54511000e-01 3.78160000e+01 2.78039000e+01	N
atom  1.26878000e+00 3.59537000e+01 2.55632000e+01	N
atom  4.64310000e-01 3.61938000e+01 2.70792000e+01	Si
atom  7.36520000e-01 3.89193000e+01 2.53253000e+01	N
atom  3.22685000e-01 3.18085000e+01 3.28778000e+01	Si
atom  1.16778000e+00 3.39105000e+01 3.10827000e+01	N
atom  1.08590000e+00 3.11679000e+01 3.15077000e+01	N
atom  5.14964000e-01 3.24065000e+01 3.03808000e+01	Si
atom  1.54936000e+00 3.29391000e+01 3.35902000e+01	N
atom  6.52320000e-01 3.52508000e+01 3.01013000e+01	Si
atom  6.93922000e-01 3.61158000e+01 3.41058000e+01	Si
atom  5.95247000e-01 3.76650000e+01 3.31132000e+01	N
atom  1.15386000e+00 3.68424000e+01 3.03944000e+01	N
atom  -3.61778000e-01 3.90747000e+01 3.30214000e+01	Si
atom  1.43859000e-01 3.94874000e+01 3.00305000e+01	N
atom  8.66210000e-01 3.19241000e+01 3.80241000e+01	Si
atom  6.90331000e-02 3.47492000e+01 3.79858000e+01	N
atom  -1.42593000e-02 3.41135000e+01 3.63603000e+01	Si
atom  8.82951000e-01 3.25633000e+01 3.63789000e+01	N
atom  1.16388000e+00 3.49092000e+01 3.53245000e+01	N
atom  1.68336000e+00 3.45969000e+01 3.87415000e+01	Si
atom  1.62059000e+00 3.04120000e+01 3.78931000e+01	N
atom  -2.71468000e-02 3.91040000e+01 3.87044000e+01	Si
atom  1.17060000e+00 3.73725000e+01 3.59012000e+01	N
atom  -5.35709000e-01 3.78773000e+01 3.59093000e+01	Si
atom  3.06426000e+00 2.94786000e+00 1.05904000e+00	N
atom  2.94796000e+00 1.30770000e+00 3.43087000e-01	Si
atom  2.52691000e+00 4.64732000e+00 4.10920000e+00	Si
atom  2.27085000e+00 3.05930000e+00 3.67340000e+00	N
atom  3.81369000e+00 2.53031000e+00 4.32258000e+00	Si
atom  2.31395000e+00 5.19862000e+00 3.90554000e-01	N
atom  3.94220000e+00 4.21016000e+00 1.81725000e+00	Si
atom  3.34946000e+00 5.45023000e+00 2.88286000e+00	N
atom  3.12486000e+00 8.07714000e+00 3.78352000e+00	N
atom  3.10096000e+00 7.07813000e+00 2.30232000e+00	Si
atom  2.57944000e+00 9.69790000e+00 3.42959000e+00	Si
atom  3.82293000e+00 9.60813000e-01 5.05881000e+00	N
atom  2.76987000e+00 3.00503000e+00 7.77322000e+00	Si
atom  2.17582000e+00 4.54260000e+00 7.17894000e+00	N
atom  2.83034000e+00 2.97290000e+00 9.53654000e+00	N
atom  3.96863000e+00 4.13588000e+00 5.21022000e+00	N
atom  1.88561000e+00 1.63280000e+00 7.18573000e+00	N
atom  2.72613000e+00 3.93397000e-01 6.34775000e+00	Si
atom  3.74648000e+00 5.13678000e+00 6.62699000e+00	Si
atom  2.12326000e+00 9.31593000e+00 8.86397000e+00	Si
atom  2.99423000e+00 9.76910000e+00 6.22601000e+00	Si
atom  3.29916000e+00 8.17458000e+00 9.31294000e+00	N
atom  3.93599000e+00 6.68667000e+00 6.07910000e+00	N
atom  2.61488000e+00 7.29089000e+00 5.12742000e+00	Si
atom  3.31046000e+00 4.27221000e+00 1.06193000e+01	Si
atom  3.23572000e+00 3.15521000e+00 1.19715000e+01	N
atom  3.57469000e+00 3.97040000e+00 1.34315000e+01	Si
atom  2.93098000e+00 1.68233000e+00 1.07484000e+01	Si
atom  2.23240000e+00 4.98727000e+00 1.40155000e+01	N
atom  3.92187000e+00 2.79648000e+00 1.46403000e+01	N
atom  3.05993000e+00 3.06427000e-01 1.18885000e+01	N
atom  4.05207000e+00 9.16266000e+00 1.24106000e+01	Si
atom  3.75699000e+00 7.41959000e+00 1.19604000e+01	N
atom  2.65627000e+00 7.19161000e+00 1.05747000e+01	Si
atom  3.10873000e+00 6.50580000e+00 1.34654000e+01	Si
atom  2.47948000e+00 9.68653000e+00 1.30555000e+01	N
atom  2.14951000e+00 5.52864000e+00 1.06956000e+01	N
atom  2.62922000e+00 1.98863000e+00 1.54851000e+01	Si
atom  3.48515000e+00 4.88902000e+00 1.68389000e+01	N
atom  3.00917000e+00 6.10023000e-01 1.65392000e+01	N
atom  2.80360000e+00 2.61543000e+00 1.97070000e+01	Si
atom  3.65657000e+00 7.46772000e+00 1.48391000e+01	N
atom  3.99031000e+00 7.78746000e+00 1.75856000e+01	N
atom  3.94935000e+00 6.57121000e+00 1.63781000e+01	Si
atom  2.96124000e+00 9.25899000e+00 1.76833000e+01	Si
atom  2.78291000e+00 9.60908000e+00 1.59431000e+01	N
atom  3.22098000e+00 3.83558000e+00 2.31787000e+01	N
atom  3.18605000e+00 1.58965000e+00 2.10933000e+01	N
atom  2.32388000e+00 4.22115000e+00 2.03843000e+01	N
atom  3.15209000e+00 4.88977000e+00 2.18071000e+01	Si
atom  2.26428000e+00 3.32016000e+00 2.45369000e+01	Si
atom  1.78123000e+00 8.73293000e-01 2.18015000e+01	Si
atom  2.53962000e+00 9.06664000e+00 2.07548000e+01	N
atom  2.44937000e+00 6.47995000e+00 2.21013000e+01	N
atom  2.16207000e+00 7.07661000e+00 2.37003000e+01	Si
atom  4.09128000e+00 9.51311000e+00 2.01935000e+01	Si
atom  2.00808000e+00 1.00565000e+01 2.38234000e+01	Si
atom  2.88071000e+00 2.76482000e+00 2.82817000e+01	N
atom  3.43694000e+00 1.76175000e+00 2.69155000e+01	Si
atom  2.39187000e+00 4.22229000e+00 2.90584000e+01	Si
atom  2.82126000e+00 1.84354000e+00 2.51918000e+01	N
atom  3.04186000e+00 4.32512000e+00 2.58146000e+01	N
atom  2.23908000e+00 5.85029000e+00 2.57182000e+01	Si
atom  2.41221000e+00 7.19907000e+00 2.83403000e+01	Si
atom  3.40582000e+00 6.94791000e+00 2.49742000e+01	N
atom  2.93001000e+00 5.93767000e+00 2.93144000e+01	N
atom  3.88941000e+00 7.79930000e+00 2.75946000e+01	N
atom  2.78704000e+00 3.54006000e+00 3.06285000e+01	N
atom  2.75847000e+00 1.25785000e+00 3.36540000e+01	N
atom  2.65688000e+00 5.82800000e-01 3.03709000e+01	N
atom  3.35194000e+00 1.95449000e+00 2.97667000e+01	Si
atom  2.89395000e+00 7.00226000e+00 3.18783000e+01	N
atom  2.55823000e+00 8.70759000e+00 3.35763000e+01	N
atom  3.99149000e+00 8.08929000e+00 3.27873000e+01	Si
atom  3.98013000e+00 6.54081000e+00 3.06142000e+01	Si
atom  2.03830000e+00 1.02679000e+01 3.15523000e+01	N
atom  3.28187000e+00 4.54168000e+00 3.79582000e+01	N
atom  2.11074000e+00 2.07904000e+00 3.88888000e+01	N
atom  3.39408000e+00 3.34028000e-01 3.50476000e+01	Si
atom  2.37607000e+00 3.67212000e-01 3.63674000e+01	N
atom  3.78979000e+00 5.40772000e+00 3.93960000e+01	Si
atom  2.87882000e+00 9.21390000e+00 3.52154000e+01	Si
atom  3.01247000e+00 9.05369000e+00 3.92756000e+01	N
atom  3.29012000e+00 5.96737000e+00 3.55996000e+01	N
atom  2.97420000e+00 1.36496000e+01 1.39603000e+00	N
atom  2.98043000e+00 1.18345000e+01 1.03690000e+00	Si
atom  3.40575000e+00 1.37869000e+01 3.12894000e+00	Si
atom  3.36843000e+00 1.07770000e+01 2.26504000e+00	N
atom  3.91403000e+00 1.48318000e+01 5.65828000e-01	Si
atom  2.07500000e+00 1.33184000e+01 4.16256000e+00	N
atom  3.05232000e+00 1.08565000e+01 4.78656000e+00	N
atom  3.44270000e+00 1.53502000e+01 3.88305000e+00	N
atom  3.52664000e+00 1.77406000e+01 2.21749000e+00	N
atom  2.65788000e+00 1.90686000e+01 2.31794000e-01	N
atom  2.14835000e+00 1.81588000e+01 3.24148000e+00	Si
atom  2.12134000e+00 1.75027000e+01 7.23561000e-01	Si
atom  2.76749000e+00 1.60030000e+01 8.81602000e-02	N
atom  1.96391000e+00 1.98093000e+01 2.86982000e+00	N
atom  3.01182000e+00 1.44910000e+01 9.55595000e+00	Si
atom  3.21379000e+00 1.21138000e+01 7.94483000e+00	Si
atom  3.09825000e+00 1.26538000e+01 9.58072000e+00	N
atom  3.96016000e+00 1.46991000e+01 8.08887000e+00	N
atom  2.86444000e+00 1.04404000e+01 7.71871000e+00	N
atom  2.13350000e+00 1.29000000e+01 6.86515000e+00	N
atom  1.91414000e+00 1.21058000e+01 5.32947000e+00	Si
atom  3.28561000e+00 1.96936000e+01 9.51700000e+00	N
atom  4.24678000e+00 1.71927000e+01 8.83218000e+00	N
atom  3.59273000e+00 1.86517000e+01 8.17004000e+00	Si
atom  3.21118000e+00 1.61192000e+01 7.51786000e+00	Si
atom  2.28441000e+00 1.78652000e+01 7.50355000e+00	N
atom  2.99186000e+00 1.14451000e+01 1.08071000e+01	Si
atom  2.64320000e+00 1.13118000e+01 1.36337000e+01	Si
atom  2.45039000e+00 1.22869000e+01 1.22200000e+01	N
atom  3.96705000e+00 1.19446000e+01 1.45169000e+01	N
atom  4.33776000e+00 1.04053000e+01 1.12611000e+01	N
atom  3.49114000e+00 1.52359000e+01 1.19608000e+01	Si
atom  2.44629000e+00 1.83254000e+01 1.31685000e+01	Si
atom  3.29585000e+00 1.68253000e+01 1.25867000e+01	N
atom  4.03830000e+00 1.91192000e+01 1.33135000e+01	N
atom  3.74793000e+00 1.32018000e+01 1.56503000e+01	Si
atom  2.11569000e+00 1.37324000e+01 1.61035000e+01	N
atom  2.12283000e+00 1.42801000e+01 1.77360000e+01	Si
atom  3.67560000e+00 1.50983000e+01 1.79175000e+01	N
atom  1.95512000e+00 1.31583000e+01 1.90852000e+01	N
atom  3.77504000e+00 1.03997000e+01 1.87134000e+01	N
atom  3.66389000e+00 1.97589000e+01 1.62688000e+01	N
atom  4.07415000e+00 1.71653000e+01 1.92531000e+01	N
atom  2.00351000e+00 1.92345000e+01 1.62667000e+01	Si
atom  2.78241000e+00 1.66660000e+01 1.82525000e+01	Si
atom  3.13110000e+00 1.24288000e+01 2.18379000e+01	N
atom  3.09871000e+00 1.31797000e+01 2.03585000e+01	Si
atom  3.31277000e+00 1.49302000e+01 2.06115000e+01	N
atom  2.35069000e+00 1.50972000e+01 2.32119000e+01	N
atom  3.65999000e+00 1.05323000e+01 2.38738000e+01	N
atom  2.16616000e+00 1.57557000e+01 2.16829000e+01	Si
atom  2.92831000e+00 1.73142000e+01 2.16022000e+01	N
atom  2.42388000e+00 1.89259000e+01 2.16073000e+01	Si
atom  2.33589000e+00 1.92541000e+01 2.33141000e+01	N
atom  3.93471000e+00 1.59068000e+01 2.40659000e+01	Si
atom  3.33470000e+00 2.01012000e+01 2.07018000e+01	N
atom  3.26900000e+00 1.89630000e+01 2.47666000e+01	Si
atom  4.25767000e+00 1.13115000e+01 2.64349000e+01	N
atom  4.03101000e+00 1.48859000e+01 2.88455000e+01	Si
atom  3.97126000e+00 1.08909000e+01 2.81989000e+01	Si
atom  2.43344000e+00 1.32694000e+01 2.56552000e+01	N
atom  2.47501000e+00 1.15907000e+01 2.62463000e+01	Si
atom  3.80129000e+00 1.42759000e+01 2.59475000e+01	Si
atom  2.33234000e+00 1.08748000e+01 2.78747000e+01	N
atom  2.45742000e+00 1.46473000e+01 2.96098000e+01	N
atom  2.32957000e+00 1.83266000e+01 2.61541000e+01	N
atom  4.12232000e+00 1.64505000e+01 2.81393000e+01	N
atom  3.51290000e+00 1.89019000e+01 2.82568000e+01	N
atom  2.86688000e+00 1.68466000e+01 2.68686000e+01	Si
atom  3.28230000e+00 2.01748000e+01 2.71565000e+01	Si
atom  3.01947000e+00 1.57186000e+01 2.56256000e+01	N
atom  2.12650000e+00 1.87427000e+01 2.94331000e+01	Si
atom  3.30670000e+00 1.22789000e+01 3.25887000e+01	N
atom  2.53198000e+00 1.18741000e+01 3.10175000e+01	Si
atom  3.38374000e+00 1.47742000e+01 3.44153000e+01	N
atom  3.03673000e+00 1.05373000e+01 3.29626000e+01	Si
atom  3.84990000e+00 1.12187000e+01 2.99710000e+01	N
atom  4.18308000e+00 1.33737000e+01 3.36214000e+01	Si
atom  2.60346000e+00 1.08908000e+01 3.46491000e+01	N
atom  2.41812000e+00 1.68571000e+01 3.19537000e+01	Si
atom  2.64178000e+00 1.98004000e+01 3.07316000e+01	N
atom  3.55826000e+00 1.86489000e+01 3.38482000e+01	Si
atom  4.06178000e+00 1.64818000e+01 3.23517000e+01	N
atom  2.07977000e+00 1.83005000e+01 3.28847000e+01	N
atom  2.01649000e+00 1.72222000e+01 3.02864000e+01	N
atom  3.82353000e+00 1.06711000e+01 3.69642000e+01	N
atom  3.45280000e+00 1.19116000e+01 3.58414000e+01	Si
atom  2.10043000e+00 1.47082000e+01 3.56129000e+01	Si
atom  3.81595000e+00 1.15897000e+01 3.95179000e+01	N
atom  2.88610000e+00 1.06139000e+01 3.83828000e+01	Si
atom  2.06870000e+00 1.29668000e+01 3.59762000e+01	N
atom  1.97644000e+00 1.93726000e+01 3.59856000e+01	Si
atom  3.49460000e+00 1.70639000e+01 3.66606000e+01	Si
atom  2.80795000e+00 1.84750000e+01 3.73244000e+01	N
atom  2.39460000e+00 1.57230000e+01 3.69890000e+01	N
atom  3.82280000e+00 1.73989000e+01 3.49739000e+01	N
atom  3.45963000e+00 1.94709000e+01 3.85503000e+01	Si
atom  3.11786000e+00 1.99501000e+01 3.48282000e+01	N
atom  3.73321000e+00 2.31274000e+01 2.17793000e+00	N
atom  3.65572000e+00 2.14462000e+01 4.34306000e+00	N
atom  1.98855000e+00 2.31241000e+01 2.07496000e+00	Si
atom  3.58437000e+00 2.51915000e+01 2.62163000e-01	N
atom  2.55879000e+00 2.04250000e+01 1.36360000e+00	Si
atom  3.00164000e+00 2.55224000e+01 2.69600000e+00	N
atom  3.12723000e+00 2.59573000e+01 4.37273000e+00	Si
atom  3.51998000e+00 2.89833000e+01 4.35323000e+00	Si
atom  2.48460000e+00 2.75586000e+01 4.51656000e+00	N
atom  2.19731000e+00 2.57700000e+01 1.17089000e+00	Si
atom  2.67545000e+00 3.01010000e+01 3.38148000e+00	N
atom  2.53021000e+00 2.25423000e+01 8.75446000e+00	Si
atom  2.48709000e+00 2.41982000e+01 8.41834000e+00	N
atom  3.06771000e+00 2.47894000e+01 6.83357000e+00	Si
atom  2.23796000e+00 2.47761000e+01 5.29471000e+00	N
atom  4.19307000e+00 2.21246000e+01 8.79385000e+00	N
atom  2.54000000e+00 2.81516000e+01 6.89210000e+00	Si
atom  3.48612000e+00 2.92888000e+01 9.57442000e+00	Si