lattice_vector  3.99274843e+01 0.00000000e+00 0.00000000e+00
lattice_vector  2.44485329e-15 3.99274843e+01 0.00000000e+00
lattice_vector  2.44485329e-15 2.44485329e-15 3.99274843e+01
atom  2.85693000e+00 8.05188000e-01 1.31930000e+00	Si
atom  3.56906000e+00 1.93711000e+00 2.34173000e+00	N
atom  1.79299000e+00 1.93799000e+00 3.65867000e-01	N
atom  4.45539000e+00 2.53780000e+00 -3.38733000e-02	N
atom  8.93409000e+00 7.12421000e-01 1.93990000e+00	N
atom  6.18256000e+00 1.68189000e+00 2.38278000e+00	N
atom  7.70597000e+00 1.81043000e+00 1.52207000e+00	Si
atom  8.74861000e+00 1.19418000e+00 4.56390000e+00	N
atom  5.97303000e+00 3.87604000e-01 3.54901000e+00	Si
atom  4.03514000e+00 2.22813000e+00 6.89761000e+00	N
atom  -7.14045000e-02 1.41624000e+00 9.35147000e+00	N
atom  1.93337000e+00 9.97995000e-01 5.73909000e+00	Si
atom  2.65701000e+00 1.14639000e+00 9.59861000e+00	N
atom  3.43810000e+00 2.33038000e+00 8.56423000e+00	Si
atom  1.28844000e+00 4.55427000e-01 7.23839000e+00	N
atom  7.33129000e+00 7.95682000e-01 9.94175000e+00	N
atom  1.21771000e+00 3.38445000e-01 9.00033000e+00	Si
atom  5.98064000e+00 7.94616000e-01 5.28332000e+00	N
atom  7.44203000e+00 1.56107000e+00 5.67511000e+00	Si
atom  4.65325000e+00 6.82993000e-01 6.45117000e+00	Si
atom  5.65271000e+00 1.21244000e+00 9.65164000e+00	Si
atom  7.89825000e+00 1.50461000e+00 7.34656000e+00	N
atom  5.16492000e+00 3.55882000e-01 8.22598000e+00	N
atom  2.55316000e-01 2.66177000e+00 2.02576000e-02	Si
atom  2.71262000e+00 1.32986000e+00 1.27562000e+01	N
atom  3.22417000e+00 7.06095000e-01 1.11987000e+01	Si
atom  -2.92774000e-01 9.24601000e-01 1.49197000e+01	Si
atom  2.17294000e+00 2.52361000e+00 1.37790000e+01	Si
atom  7.88085000e+00 2.01195000e+00 1.27399000e+01	N
atom  7.88070000e+00 7.78507000e-01 1.15801000e+01	Si
atom  4.91043000e+00 5.19962000e-01 1.10340000e+01	N
atom  6.00719000e+00 2.49530000e+00 1.46286000e+01	N
atom  5.31603000e+00 9.82162000e-01 1.93756000e+01	N
atom  1.27243000e+00 1.77828000e+00 1.50440000e+01	N
atom  9.99679000e-01 1.71023000e+00 1.77472000e+01	N
atom  3.64402000e+00 1.79403000e+00 1.64077000e+01	N
atom  4.21347000e+00 1.57596000e+00 1.80771000e+01	Si
atom  2.01634000e+00 2.27972000e+00 1.64783000e+01	Si
atom  -2.50989000e-02 3.44560000e-01 1.78444000e+01	Si
atom  8.46221000e+00 2.63204000e+00 1.59692000e+01	N
atom  9.28660000e+00 1.03284000e+00 1.59695000e+01	Si
atom  5.97343000e+00 2.17570000e+00 1.72481000e+01	N
atom  6.94852000e+00 1.83452000e+00 1.58912000e+01	Si
atom  9.71774000e-01 1.73810000e+00 2.05398000e+01	N
atom  1.72321000e+00 2.14337000e+00 2.20640000e+01	Si
atom  1.54943000e+00 7.73264000e-01 2.31449000e+01	N
atom  4.42251000e+00 1.60479000e+00 2.23939000e+01	Si
atom  4.22305000e+00 5.98925000e-01 2.38030000e+01	N
atom  7.60884000e-01 4.27519000e-01 2.46425000e+01	Si
atom  3.63547000e+00 3.51978000e-01 2.15101000e+01	N
atom  7.44591000e+00 1.23570000e+00 2.26001000e+01	Si
atom  5.99715000e+00 1.90912000e+00 2.18220000e+01	N
atom  6.96415000e+00 8.45248000e-01 2.42776000e+01	N
atom  7.98147000e+00 2.02990000e+00 1.99644000e+01	N
atom  6.18521000e+00 2.22757000e+00 2.01465000e+01	Si
atom  8.70777000e+00 4.36164000e-01 2.00110000e+01	Si
atom  3.58675000e+00 1.26022000e+00 2.77432000e+01	N
atom  1.08509000e+00 2.30526000e+00 2.84643000e+01	N
atom  1.55364000e+00 9.06323000e-01 2.74671000e+01	Si
atom  3.75987000e+00 9.37022000e-01 2.56898000e+01	Si
atom  2.00956000e+00 7.29667000e-01 2.57336000e+01	N
atom  -2.53017000e-01 6.87444000e-01 2.70822000e+01	N
atom  4.62394000e+00 2.40232000e+00 2.57960000e+01	N
atom  8.23678000e+00 2.52030000e+00 2.81021000e+01	Si
atom  6.96628000e+00 2.37226000e+00 2.68722000e+01	N
atom  8.61096000e+00 8.59306000e-01 2.84155000e+01	N
atom  5.19946000e+00 2.15888000e+00 2.74118000e+01	Si
atom  7.52814000e+00 2.14910000e+00 2.52013000e+01	Si
atom  5.78960000e+00 1.23445000e+00 2.88271000e+01	N
atom  8.49098000e+00 2.62587000e+00 2.26951000e+01	N
atom  5.78908000e+00 2.78138000e+00 2.96645000e+01	Si
atom  3.93106000e+00 1.50388000e+00 3.16731000e+01	Si
atom  3.69213000e+00 1.56321000e+00 3.34038000e+01	N
atom  2.43036000e+00 2.00319000e+00 3.10116000e+01	N
atom  9.17602000e-02 1.95455000e+00 3.34209000e+01	N
atom  1.19142000e+00 1.33050000e+00 2.99563000e+01	Si
atom  -3.34494000e-01 1.22826000e+00 3.08008000e+01	N
atom  8.86622000e+00 2.03543000e+00 3.30986000e+01	Si
atom  8.02811000e+00 1.58229000e+00 3.45175000e+01	N
atom  6.37895000e+00 7.48075000e-01 3.26350000e+01	N
atom  6.30014000e+00 2.48885000e+00 3.24941000e+01	Si
atom  9.48256000e+00 5.81682000e-01 3.25458000e+01	N
atom  5.09904000e+00 2.70954000e+00 3.12272000e+01	N
atom  4.09607000e+00 1.14188000e+00 3.50722000e+01	Si
atom  2.65882000e+00 1.47959000e+00 3.75791000e+01	N
atom  3.86597000e+00 1.22230000e+00 3.88517000e+01	Si
atom  1.09707000e-01 2.47894000e+00 3.51354000e+01	Si
atom  5.34492000e-01 7.78689000e-01 3.59352000e+01	N
atom  7.38034000e+00 1.98016000e+00 3.97334000e+01	N
atom  7.90979000e+00 9.00999000e-01 3.71400000e+01	N
atom  5.38712000e+00 1.22872000e+00 3.80592000e+01	N
atom  5.67444000e+00 7.10575000e-01 3.54369000e+01	N
atom  8.37688000e+00 8.62127000e-01 3.87995000e+01	Si
atom  8.37582000e+00 2.21485000e+00 3.60772000e+01	Si
atom  5.98381000e+00 2.66920000e+00 3.88411000e+01	Si
atom  3.73538000e+00 2.83395000e+00 3.55777000e+01	N
atom  1.76276000e+00 4.43486000e+00 3.38546000e+00	N
atom  8.89771000e-01 4.18201000e+00 4.98583000e-01	N
atom  3.06582000e+00 3.38773000e+00 3.18420000e+00	Si
atom  6.68463000e-01 3.71333000e+00 4.56643000e+00	Si
atom  4.31595000e+00 3.61825000e+00 4.34450000e+00	N
atom  3.23022000e+00 4.21813000e+00 1.52519000e+00	N
atom  2.72877000e+00 3.40350000e+00 4.90237000e-02	Si
atom  5.71891000e+00 4.41173000e+00 5.02753000e+00	Si
atom  8.34825000e+00 3.39706000e+00 1.88914000e+00	N
atom  5.82080000e+00 4.28311000e+00 1.36282000e+00	N
atom  7.21411000e+00 4.53574000e+00 2.42268000e+00	Si
atom  9.21307000e+00 4.13856000e+00 5.74752000e-01	Si
atom  7.09432000e+00 4.99307000e+00 4.05682000e+00	N
atom  4.99623000e+00 2.71634000e+00 1.59049000e+00	Si
atom  2.00172000e+00 3.32794000e+00 8.11945000e+00	N
atom  3.34014000e+00 3.32002000e+00 5.75724000e+00	Si
atom  7.05012000e-01 2.95544000e+00 9.15453000e+00	Si
atom  1.51307000e+00 4.75113000e+00 7.12555000e+00	Si
atom  3.72626000e-01 4.78850000e+00 5.86782000e+00	N
atom  2.96431000e+00 5.03273000e+00 6.31835000e+00	N
atom  7.39693000e+00 3.10390000e+00 7.61277000e+00	Si
atom  6.88681000e+00 3.38046000e+00 5.95349000e+00	N
atom  4.89482000e+00 2.77544000e+00 9.52227000e+00	N
atom  7.19659000e+00 3.68924000e+00 9.24145000e+00	N
atom  8.25171000e+00 4.64045000e+00 5.47260000e+00	Si
atom  8.84152000e+00 4.12308000e+00 7.37579000e+00	N
atom  8.33047000e+00 5.02923000e+00 8.84694000e+00	Si
atom  1.89181000e+00 2.60245000e+00 5.12509000e+00	N
atom  8.82271000e-01 3.48220000e+00 1.30491000e+01	N
atom  5.90508000e-01 4.20741000e+00 1.04214000e+01	N
atom  3.52825000e+00 3.54295000e+00 1.42417000e+01	N
atom  4.11138000e+00 4.49156000e+00 1.30012000e+01	Si
atom  1.29515000e+00 4.66328000e+00 1.19554000e+01	Si
atom  2.94879000e+00 4.77618000e+00 1.18041000e+01	N
atom  5.46015000e+00 3.69788000e+00 1.21856000e+01	N
atom  5.82858000e+00 4.04046000e+00 1.04447000e+01	Si
atom  6.71452000e+00 3.22375000e+00 1.32416000e+01	Si
atom  7.50642000e+00 4.73544000e+00 1.35366000e+01	N
atom  9.19895000e+00 4.79063000e+00 1.38518000e+01	Si
atom  1.80951000e+00 4.01706000e+00 1.65107000e+01	N
atom  5.51934000e-01 4.21127000e+00 1.91314000e+01	N
atom  7.55285000e-02 4.59944000e+00 1.64565000e+01	Si
atom  3.09500000e+00 2.79870000e+00 1.89653000e+01	N
atom  1.36999000e+00 2.69690000e+00 1.91206000e+01	Si
atom  4.59933000e+00 2.95396000e+00 1.55326000e+01	Si
atom  4.69384000e+00 4.32817000e+00 1.66071000e+01	N
atom  7.40880000e+00 4.59932000e+00 1.75264000e+01	N
atom  5.94946000e+00 3.88533000e+00 1.78352000e+01	Si
atom  8.87185000e+00 4.11401000e+00 1.67576000e+01	Si
atom  5.73071000e+00 3.76576000e+00 1.95545000e+01	N
atom  6.50833000e-01 3.36676000e+00 2.26128000e+01	N
atom  3.52568000e+00 4.57585000e+00 2.26335000e+01	Si
atom  3.61839000e+00 4.56792000e+00 2.44062000e+01	N
atom  3.29038000e+00 2.95572000e+00 2.20803000e+01	N
atom  9.60821000e+00 4.83191000e+00 2.32020000e+01	N
atom  7.55120000e+00 4.62351000e+00 2.13229000e+01	N
atom  6.73274000e+00 3.58911000e+00 2.44675000e+01	N
atom  8.66049000e+00 3.33452000e+00 2.10618000e+01	Si
atom  7.72795000e+00 4.35494000e+00 2.30721000e+01	Si
atom  9.66456000e+00 3.41799000e+00 2.78858000e+01	N
atom  6.19082000e-01 3.78955000e+00 2.77293000e+01	Si
atom  2.06377000e+00 4.40975000e+00 2.69936000e+01	N
atom  3.13308000e+00 4.49815000e+00 2.82927000e+01	Si
atom  -5.95419000e-02 5.12501000e+00 2.86098000e+01	N
atom  7.44836000e+00 3.29724000e+00 2.94231000e+01	N
atom  5.05314000e+00 3.86919000e+00 2.50312000e+01	Si
atom  4.81591000e+00 3.66470000e+00 2.84751000e+01	N
atom  9.21481000e+00 2.69970000e+00 2.53121000e+01	N
atom  2.79299000e+00 4.15726000e+00 3.29589000e+01	N
atom  5.28795000e-01 3.90810000e+00 3.13946000e+01	N
atom  3.91791000e+00 3.30114000e+00 3.39674000e+01	Si
atom  2.24133000e+00 3.65018000e+00 3.13994000e+01	Si
atom  2.33052000e+00 4.53538000e+00 2.98420000e+01	N
atom  8.12928000e+00 4.11985000e+00 3.08295000e+01	Si
atom  5.67547000e+00 3.46312000e+00 3.38028000e+01	N
atom  7.90450000e+00 2.85904000e+00 3.19496000e+01	N
atom  6.78863000e+00 4.24957000e+00 3.48020000e+01	Si
atom  8.05785000e+00 5.04447000e+00 3.39306000e+01	N
atom  -5.16094000e-01 3.16375000e+00 3.83424000e+01	N
atom  1.29250000e+00 3.50914000e+00 3.58972000e+01	N
atom  2.58577000e+00 3.06179000e+00 3.69209000e+01	Si
atom  2.95937000e+00 4.03866000e+00 3.83412000e+01	N
atom  7.41330000e+00 3.63061000e+00 3.63081000e+01	N
atom  7.44338000e-01 5.15382000e+00 3.51846000e+01	Si
atom  6.76902000e+00 5.14020000e+00 3.71050000e+01	Si
atom  5.79029000e+00 4.32582000e+00 3.83441000e+01	N
atom  2.82454000e-01 6.14185000e+00 1.78001000e+00	N
atom  2.91323000e+00 6.69814000e+00 1.75051000e+00	N
atom  1.80971000e+00 5.29468000e+00 1.80401000e+00	Si
atom  -3.68593000e-01 7.09856000e+00 3.09582000e+00	Si
atom  4.41418000e+00 5.51567000e+00 1.49729000e+00	Si
atom  9.09813000e+00 6.76283000e+00 1.48652000e+00	Si
atom  4.99072000e+00 6.34901000e+00 2.98305000e+00	N
atom  7.61292000e+00 6.20417000e+00 1.99731000e+00	N
atom  6.66557000e+00 6.69479000e+00 3.48232000e+00	Si
atom  6.38871000e+00 5.11557000e+00 -5.83651000e-02	Si
atom  4.90470000e+00 6.20358000e+00 -4.58891000e-02	N
atom  -2.65619000e-01 5.20307000e+00 9.16857000e+00	Si
atom  1.01863000e+00 5.99209000e+00 8.31039000e+00	N
atom  3.94868000e+00 6.58422000e+00 6.22506000e+00	Si
atom  3.52180000e+00 7.31492000e+00 7.75235000e+00	N
atom  6.77666000e+00 6.75114000e+00 6.76447000e+00	Si
atom  8.21350000e+00 6.33572000e+00 5.92093000e+00	N
atom  5.49795000e+00 5.81027000e+00 6.05222000e+00	N
atom  3.64105000e+00 7.28518000e+00 3.25433000e+00	Si
atom  7.21444000e+00 6.23138000e+00 8.34058000e+00	N
atom  6.61844000e-01 6.22458000e+00 1.22164000e+01	N
atom  3.95452000e+00 7.28681000e+00 1.43793000e+01	Si
atom  4.84086000e+00 6.03670000e+00 1.35013000e+01	N
atom  6.09162000e+00 5.76092000e+00 1.08431000e+01	N
atom  6.33838000e+00 5.71635000e+00 1.25711000e+01	Si
atom  7.20858000e+00 7.20860000e+00 1.27280000e+01	N
atom  8.76873000e+00 7.23186000e+00 1.20632000e+01	Si
atom  1.23340000e+00 6.87566000e+00 1.58494000e+01	Si
atom  2.80063000e+00 6.36534000e+00 1.54149000e+01	N
atom  2.92626000e+00 5.96250000e+00 1.81598000e+01	N
atom  4.53498000e-01 6.12655000e+00 1.71765000e+01	N
atom  1.26823000e+00 5.71974000e+00 1.86878000e+01	Si
atom  3.20604000e+00 5.14006000e+00 1.66952000e+01	Si
atom  9.30117000e+00 5.36743000e+00 1.55615000e+01	N
atom  6.50111000e+00 6.95332000e+00 1.67219000e+01	N
atom  6.56561000e+00 6.36050000e+00 1.94369000e+01	N
atom  8.94521000e+00 6.97065000e+00 1.77298000e+01	N
atom  7.42615000e+00 6.31682000e+00 1.79672000e+01	Si
atom  3.03758000e+00 7.32310000e+00 1.92261000e+01	Si
atom  6.73201000e+00 6.97751000e+00 9.77846000e+00	Si
atom  2.18822000e+00 5.79289000e+00 2.27520000e+01	N
atom  1.49228000e+00 6.90819000e+00 1.99177000e+01	N
atom  -3.09258000e-01 5.98065000e+00 2.19278000e+01	N
atom  2.58256000e+00 7.35674000e+00 2.38108000e+01	Si
atom  6.45464000e-01 5.23790000e+00 2.48146000e+01	N
atom  5.85345000e-01 5.06298000e+00 2.31125000e+01	Si
atom  4.71796000e+00 7.17410000e+00 2.19646000e+01	Si
atom  4.74052000e+00 5.42498000e+00 2.17426000e+01	N
atom  7.37464000e+00 5.90556000e+00 2.38162000e+01	N
atom  6.05810000e+00 5.15460000e+00 2.05599000e+01	Si
atom  2.64431000e+00 6.99864000e+00 2.55019000e+01	N
atom  3.85680000e+00 6.04657000e+00 2.79419000e+01	N
atom  2.27363000e+00 5.19525000e+00 2.53783000e+01	Si
atom  5.63991000e+00 5.07038000e+00 2.61684000e+01	N
atom  6.55938000e+00 6.21393000e+00 2.84198000e+01	N
atom  8.04558000e+00 6.72906000e+00 2.75992000e+01	Si
atom  9.33463000e+00 6.26856000e+00 2.86517000e+01	N
atom  8.46406000e+00 5.75784000e+00 2.62269000e+01	N
atom  5.41631000e+00 5.22992000e+00 2.77835000e+01	Si
atom  7.12806000e+00 5.14670000e+00 2.53561000e+01	Si
atom  6.83384000e-01 6.21414000e+00 3.36908000e+01	N
atom  2.40085000e+00 5.78017000e+00 3.34504000e+01	Si
atom  9.91246000e-01 6.83406000e+00 3.04738000e+01	N
atom  3.11923000e+00 6.78527000e+00 3.22757000e+01	N
atom  6.16149000e-01 5.16391000e+00 3.02157000e+01	Si
atom  7.41696000e+00 6.14721000e+00 3.26722000e+01	Si
atom  5.90850000e+00 6.68124000e+00 3.31682000e+01	N
atom  7.31253000e+00 5.56370000e+00 3.10593000e+01	N
atom  6.80263000e+00 6.89388000e+00 3.00956000e+01	Si
atom  3.84864000e+00 6.68641000e+00 3.76728000e+01	N
atom  2.15607000e-01 5.95296000e+00 3.66492000e+01	N
atom  2.54192000e+00 5.82874000e+00 3.51380000e+01	N
atom  3.17373000e+00 7.05901000e+00 3.61010000e+01	Si
atom  4.19994000e+00 5.22866000e+00 3.84581000e+01	Si
atom  7.17935000e+00 6.67560000e+00 3.77807000e+01	N
atom  5.80730000e+00 7.09935000e+00 3.48824000e+01	Si
atom  5.89416000e+00 5.57947000e+00 3.56840000e+01	N
atom  8.58211000e+00 6.58431000e+00 3.88903000e+01	Si
atom  8.54376000e+00 7.44672000e+00 3.29292000e+01	N
atom  4.70844000e+00 7.43473000e+00 3.21536000e+01	Si
atom  8.06655000e+00 5.07047000e+00 3.94832000e+01	N
atom  1.14694000e+00 8.97651000e+00 1.01772000e+00	N
atom  2.76911000e+00 8.33516000e+00 1.20020000e+00	Si
atom  3.89341000e+00 8.80507000e+00 2.50255000e+00	N
atom  9.54863000e-01 8.11732000e+00 3.64484000e+00	N
atom  4.05656000e-01 9.44555000e+00 2.46274000e+00	Si
atom  5.78483000e+00 8.38681000e+00 9.35623000e+00	N
atom  7.10924000e+00 8.25722000e+00 4.11230000e+00	N
atom  8.73066000e+00 8.78006000e+00 3.59630000e+00	Si
atom  8.84491000e+00 7.86316000e+00 1.62694000e-01	N
atom  9.02481000e+00 9.50860000e+00 7.97077000e-01	Si
atom  1.86959000e+00 8.46779000e+00 5.09573000e+00	Si
atom  1.26876000e+00 8.75449000e+00 8.97145000e+00	N
atom  1.05044000e+00 7.91417000e+00 6.47631000e+00	N
atom  3.29464000e+00 7.49837000e+00 4.95487000e+00	N
atom  9.57878000e+00 8.84149000e+00 5.26195000e+00	N
atom  6.38740000e+00 9.22580000e+00 5.37348000e+00	Si
atom  5.81938000e+00 8.20070000e+00 6.67557000e+00	N
atom  4.68088000e+00 8.58868000e+00 8.02558000e+00	Si
atom  1.87921000e+00 7.43463000e+00 8.03733000e+00	Si
atom  9.73570000e+00 7.18858000e+00 5.88679000e+00	Si
atom  4.85747000e-01 9.00410000e+00 1.20330000e+01	N
atom  1.50661000e+00 9.08242000e+00 1.06439000e+01	Si
atom  2.67187000e+00 8.05596000e+00 1.33955000e+01	N
atom  3.36024000e+00 9.38113000e+00 1.26109000e+01	Si
atom  3.23464000e+00 8.96729000e+00 1.09952000e+01	N
atom  9.68621000e-01 7.68663000e+00 1.30657000e+01	Si
atom  1.59947000e-01 7.51597000e+00 1.45972000e+01	N
atom  6.55829000e+00 8.77368000e+00 1.30391000e+01	Si
atom  4.92917000e+00 9.16449000e+00 1.33769000e+01	N
atom  7.15603000e+00 8.93002000e+00 1.45990000e+01	N
atom  8.36915000e+00 7.29575000e+00 1.03823000e+01	N
atom  4.31602000e+00 9.54634000e+00 1.96090000e+01	Si
atom  4.43092000e+00 8.57723000e+00 1.57092000e+01	N
atom  1.43475000e+00 8.51282000e+00 1.65178000e+01	N
atom  1.17089000e-01 9.01479000e+00 1.54981000e+01	Si
atom  3.38803000e+00 8.80738000e+00 1.83065000e+01	N
atom  3.03306000e+00 8.99769000e+00 1.66758000e+01	Si
atom  9.55588000e+00 8.30833000e+00 1.87006000e+01	Si
atom  5.99341000e+00 9.20558000e+00 1.95193000e+01	N
atom  6.18240000e+00 8.45470000e+00 1.60323000e+01	Si
atom  7.16908000e+00 9.66579000e+00 1.16313000e+01	N
atom  1.49697000e+00 8.26101000e+00 2.28205000e+01	N
atom  4.15399000e+00 8.00203000e+00 2.33102000e+01	N
atom  4.06397000e+00 7.84498000e+00 2.05209000e+01	N
atom  8.34324000e-01 7.29930000e+00 2.14710000e+01	Si
atom  5.07156000e+00 9.24445000e+00 2.40783000e+01	Si
atom  8.98199000e+00 9.15098000e+00 2.15591000e+01	Si
atom  8.90401000e+00 7.96748000e+00 2.27317000e+01	N
atom  6.79384000e+00 7.83681000e+00 2.02834000e+01	Si
atom  6.38566000e+00 7.63040000e+00 2.19301000e+01	N
atom  8.46849000e+00 8.34700000e+00 2.00523000e+01	N
atom  7.34171000e+00 7.53955000e+00 2.33312000e+01	Si
atom  6.63341000e+00 8.50009000e+00 2.45924000e+01	N
atom  1.54680000e+00 7.93995000e+00 2.78794000e+01	N
atom  4.25926000e+00 8.66896000e+00 2.79190000e+01	N
atom  4.75974000e-01 7.96444000e+00 2.92975000e+01	Si
atom  3.05773000e+00 7.56013000e+00 2.72137000e+01	Si
atom  4.36858000e+00 8.79019000e+00 2.96476000e+01	Si
atom  8.59256000e+00 8.25237000e+00 2.67535000e+01	N
atom  7.55099000e+00 9.29190000e+00 2.58585000e+01	Si
atom  1.39458000e+00 8.73606000e+00 3.28974000e+01	N
atom  2.77856000e+00 8.90230000e+00 3.03115000e+01	N
atom  1.96743000e+00 7.90292000e+00 3.14724000e+01	Si
atom  1.29025000e-01 7.78661000e+00 3.36653000e+01	Si
atom  2.64585000e-01 9.43551000e+00 3.04368000e+01	N
atom  4.42214000e+00 9.50793000e+00 3.43817000e+01	Si
atom  4.61474000e+00 9.00878000e+00 3.27920000e+01	N
atom  5.25947000e+00 7.49256000e+00 3.04726000e+01	N
atom  7.83884000e+00 8.77998000e+00 3.37263000e+01	Si
atom  7.95241000e+00 8.08969000e+00 2.98575000e+01	N
atom  7.06208000e+00 8.23062000e+00 3.69642000e+01	Si
atom  5.68689000e+00 8.80490000e+00 3.77708000e+01	N
atom  -4.90567000e-01 8.25945000e+00 3.53214000e+01	N
atom  -1.38808000e-01 8.35606000e+00 3.82330000e+01	N
atom  2.00603000e+00 8.37345000e+00 3.64710000e+01	N
atom  4.17386000e-01 7.78382000e+00 3.66850000e+01	Si
atom  3.92490000e-01 9.52439000e+00 3.94674000e+01	Si
atom  4.42144000e+00 8.01778000e+00 3.52119000e+01	N
atom  3.51663000e+00 8.88378000e+00 3.96667000e+01	N
atom  4.60812000e+00 7.82298000e+00 3.88295000e+01	Si
atom  7.13559000e+00 8.10067000e+00 3.51620000e+01	N
atom  8.28590000e+00 9.35490000e+00 3.74393000e+01	N
atom  7.10302000e+00 9.79169000e+00 3.24459000e+01	N
atom  3.25419000e+00 1.12656000e+01 2.69278000e+00	N
atom  4.41658000e-01 1.11701000e+01 2.76825000e+00	N
atom  1.90111000e+00 1.14427000e+01 3.77462000e+00	Si
atom  4.56942000e+00 1.02321000e+01 3.09965000e+00	Si
atom  7.45810000e+00 1.12817000e+01 1.63007000e+00	Si
atom  5.69681000e+00 1.11054000e+01 1.95152000e+00	N
atom  8.32326000e+00 9.97231000e+00 2.40799000e+00	N
atom  5.13522000e+00 1.03693000e+01 4.73220000e+00	N
atom  8.10133000e+00 1.07934000e+01 -9.93108000e-03	N
atom  1.83741000e+00 1.02084000e+01 5.06530000e+00	N
atom  8.88972000e-01 1.12421000e+01 7.68674000e+00	N
atom  5.20905000e-01 1.08107000e+01 6.01946000e+00	Si
atom  1.99446000e+00 1.03781000e+01 8.63132000e+00	Si
atom  3.60204000e+00 1.00051000e+01 8.02450000e+00	N
atom  4.44541000e+00 1.14835000e+01 8.33293000e+00	Si
atom  7.92440000e+00 1.06495000e+01 9.03830000e+00	N
atom  8.15788000e+00 1.12430000e+01 7.33557000e+00	Si
atom  5.51948000e+00 1.11172000e+01 9.69077000e+00	N
atom  7.19437000e+00 1.06046000e+01 6.04212000e+00	N
atom  5.93918000e+00 1.17670000e+01 5.57461000e+00	Si
atom  4.24607000e+00 1.20678000e+01 1.53336000e+00	Si
atom  4.03678000e+00 1.17501000e+01 -1.21018000e-01	N
atom  3.13312000e+00 1.09677000e+01 1.34591000e+01	N
atom  1.57087000e+00 1.09171000e+01 1.03621000e+01	N
atom  5.66449000e-01 1.03539000e+01 1.45520000e+01	N
atom  -9.97797000e-02 1.16839000e+01 1.06364000e+01	Si
atom  2.00031000e+00 1.13406000e+01 1.47732000e+01	Si
atom  4.27211000e+00 1.01452000e+01 1.47139000e+01	Si
atom  8.17445000e+00 1.14129000e+01 1.33272000e+01	N
atom  8.78954000e+00 1.02548000e+01 1.21613000e+01	Si
atom  5.62503000e+00 1.12673000e+01 1.48406000e+01	N
atom  8.70289000e+00 1.18714000e+01 9.94873000e+00	Si
atom  -4.33217000e-01 1.18336000e+01 1.23252000e+01	N
atom  6.63647000e+00 9.89065000e+00 9.97848000e+00	Si
atom  3.12176000e+00 1.15743000e+01 1.75885000e+01	Si
atom  7.06296000e-02 1.16675000e+01 1.85314000e+01	Si
atom  3.06333000e+00 1.07059000e+01 1.60427000e+01	N
atom  1.74721000e+00 1.12728000e+01 1.86743000e+01	N
atom  4.62267000e+00 1.11021000e+01 1.84290000e+01	N
atom  9.17193000e+00 1.15478000e+01 1.85683000e+01	Si
atom  7.48751000e+00 1.15691000e+01 1.89205000e+01	N
atom  7.16832000e+00 1.06014000e+01 1.52034000e+01	Si
atom  8.75606000e+00 1.11892000e+01 1.57851000e+01	N
atom  6.25269000e+00 1.05215000e+01 1.83776000e+01	Si
atom  6.65382000e+00 9.89974000e+00 1.68610000e+01	N
atom  9.42760000e+00 1.20512000e+01 1.43654000e+01	Si
atom  9.72966000e+00 1.00084000e+01 1.80457000e+01	N
atom  -3.87010000e-01 1.02143000e+01 1.31084000e+01	Si
atom  4.81642000e-01 1.05631000e+01 2.40437000e+01	N
atom  3.04665000e+00 1.09280000e+01 2.33943000e+01	N
atom  3.63423000e+00 1.04658000e+01 2.08832000e+01	N
atom  1.04096000e+00 1.04980000e+01 2.13088000e+01	N
atom  2.22231000e+00 1.12537000e+01 2.03421000e+01	Si
atom  1.67391000e+00 1.00106000e+01 2.28630000e+01	Si
atom  4.32056000e+00 1.11643000e+01 2.22556000e+01	Si
atom  7.36839000e+00 1.09925000e+01 2.32817000e+01	Si
atom  5.70148000e+00 1.06246000e+01 2.32019000e+01	N
atom  7.97650000e+00 1.05468000e+01 2.17356000e+01	N
atom  7.87829000e+00 1.20135000e+01 2.06442000e+01	Si
atom  3.67517000e+00 1.14642000e+01 2.49834000e+01	Si
atom  1.82250000e+00 1.16637000e+01 2.89654000e+01	N
atom  8.74530000e-01 1.16209000e+01 2.53487000e+01	Si
atom  2.44687000e+00 1.17251000e+01 2.61234000e+01	N
atom  4.45562000e+00 1.14048000e+01 2.79592000e+01	N
atom  4.44010000e+00 9.98037000e+00 2.55015000e+01	N
atom  -4.77799000e-02 1.18923000e+01 2.67957000e+01	N
atom  5.25716000e+00 1.18055000e+01 2.94392000e+01	Si
atom  8.28843000e+00 1.05031000e+01 2.47384000e+01	N
atom  5.00699000e+00 1.00214000e+01 2.71869000e+01	Si
atom  8.91051000e+00 1.19558000e+01 2.69565000e+01	N
atom  6.71541000e+00 1.02099000e+01 2.70849000e+01	N
atom  7.24507000e+00 1.18310000e+01 2.74816000e+01	Si
atom  6.95342000e+00 1.19445000e+01 2.92628000e+01	N
atom  1.80058000e+00 1.04047000e+01 3.32009000e+01	Si
atom  2.39068000e+00 1.10973000e+01 3.17416000e+01	N
atom  7.64436000e-01 1.17227000e+01 3.36068000e+01	N
atom  1.76260000e+00 1.03365000e+01 3.02653000e+01	Si
atom  2.95197000e+00 1.03113000e+01 3.46098000e+01	N
atom  8.25697000e+00 1.10855000e+01 3.28323000e+01	Si
atom  5.03651000e+00 1.16064000e+01 3.27855000e+01	N
atom  4.98816000e+00 1.02430000e+01 3.02462000e+01	N
atom  5.50863000e+00 1.01462000e+01 3.18962000e+01	Si
atom  9.01028000e+00 9.97589000e+00 3.39173000e+01	N
atom  5.80645000e+00 1.19769000e+01 3.42556000e+01	Si
atom  8.91676000e+00 1.20576000e+01 3.71296000e+01	N
atom  -2.09154000e-01 1.15896000e+01 3.50430000e+01	Si
atom  1.45501000e+00 1.07552000e+01 3.88641000e+01	N
atom  3.17997000e+00 1.05203000e+01 3.89638000e+01	Si
atom  8.36714000e-01 1.10714000e+01 3.62931000e+01	N
atom  3.61193000e+00 1.05660000e+01 3.72234000e+01	N
atom  9.41770000e-01 1.19680000e+01 3.77928000e+01	Si
atom  2.36952000e+00 1.01020000e+01 3.61822000e+01	Si
atom  5.34060000e+00 1.03833000e+01 3.69493000e+01	Si
atom  5.60599000e+00 1.05861000e+01 3.52400000e+01	N
atom  6.30351000e+00 1.14904000e+01 3.78842000e+01	N
atom  7.94809000e+00 1.10299000e+01 3.81315000e+01	Si
atom  1.06835000e+00 1.38823000e+01 1.88105000e+00	N
atom  3.87227000e+00 1.37062000e+01 1.99132000e+00	N
atom  2.08099000e+00 1.30837000e+01 4.32973000e+00	N
atom  2.43609000e+00 1.40640000e+01 2.99177000e+00	Si
atom  -1.23956000e-01 1.27180000e+01 2.22487000e+00	Si
atom  7.80191000e+00 1.29468000e+01 7.37409000e+00	N
atom  5.89450000e+00 1.37250000e+01 3.40751000e-02	N
atom  7.81432000e+00 1.34508000e+01 3.55898000e+00	Si
atom  7.73488000e+00 1.30047000e+01 1.85727000e+00	N
atom  7.50164000e+00 1.41535000e+01 5.85253000e-01	Si
atom  6.42315000e+00 1.30653000e+01 4.50589000e+00	N
atom  9.38559000e+00 1.30556000e+01 4.26974000e+00	N
atom  3.13967000e+00 1.26069000e+01 8.90906000e+00	N
atom  9.09012000e-01 1.36350000e+01 5.45955000e+00	Si
atom  2.61037000e-01 1.28516000e+01 8.13804000e+00	Si
atom  1.40848000e+00 1.37937000e+01 7.13310000e+00	N
atom  2.99970000e+00 1.39238000e+01 7.76921000e+00	Si
atom  -1.24589000e-01 1.22768000e+01 5.43223000e+00	N
atom  5.75120000e+00 1.38221000e+01 9.13485000e+00	N
atom  8.99801000e+00 1.40564000e+01 7.99003000e+00	Si
atom  5.04834000e+00 1.24168000e+01 6.95899000e+00	N
atom  6.17346000e+00 1.36567000e+01 7.49382000e+00	Si
atom  2.88598000e+00 1.33628000e+01 1.16357000e+01	N
atom  4.05072000e+00 1.34089000e+01 1.44549000e+01	N
atom  3.86687000e+00 1.25609000e+01 1.29292000e+01	Si
atom  2.24650000e+00 1.24828000e+01 1.03399000e+01	Si
atom  5.86030000e+00 1.26479000e+01 1.04062000e+01	Si
atom  6.79046000e+00 1.37899000e+01 1.37610000e+01	N
atom  7.49779000e+00 1.27023000e+01 1.09101000e+01	N
atom  5.35789000e+00 1.23467000e+01 1.20911000e+01	N
atom  7.01357000e+00 1.24936000e+01 1.26067000e+01	Si
atom  5.72787000e+00 1.30614000e+01 1.49766000e+01	Si
atom  1.53437000e+00 1.29321000e+01 1.51649000e+01	N
atom  -4.49337000e-02 1.32077000e+01 1.57847000e+01	Si
atom  2.87183000e+00 1.39431000e+01 1.56498000e+01	Si
atom  3.33877000e+00 1.32117000e+01 1.72069000e+01	N
atom  -5.25884000e-02 1.32372000e+01 1.93663000e+01	N
atom  8.98064000e+00 1.36383000e+01 1.50160000e+01	N
atom  8.43156000e+00 1.29347000e+01 1.64873000e+01	Si
atom  9.59186000e+00 1.30292000e+01 1.77195000e+01	N
atom  6.76341000e+00 1.33564000e+01 1.64597000e+01	N
atom  5.87923000e-01 1.31101000e+01 9.80438000e+00	N
atom  2.24755000e+00 1.28916000e+01 2.06890000e+01	N
atom  6.30879000e-01 1.34290000e+01 2.09346000e+01	Si
atom  3.65163000e+00 1.38077000e+01 2.11811000e+01	Si
atom  3.27277000e-01 1.30913000e+01 2.46153000e+01	N
atom  4.68270000e+00 1.28166000e+01 2.21879000e+01	N
atom  2.78051000e-01 1.44211000e+01 2.35890000e+01	Si
atom  5.73115000e+00 1.31124000e+01 2.35455000e+01	Si
atom  7.28673000e+00 1.36217000e+01 2.09318000e+01	N
atom  7.43390000e+00 1.27085000e+01 2.33663000e+01	N
atom  7.72370000e+00 1.42183000e+01 2.25376000e+01	Si
atom  2.99165000e+00 1.21840000e+01 2.77466000e+01	Si
atom  3.53333000e+00 1.39311000e+01 2.75306000e+01	N
atom  3.05821000e-01 1.23435000e+01 2.84202000e+01	Si
atom  2.67012000e-01 1.41369000e+01 2.84937000e+01	N
atom  4.62889000e+00 1.29553000e+01 2.48893000e+01	N
atom  6.32066000e+00 1.31973000e+01 2.69967000e+01	N
atom  9.21060000e+00 1.37390000e+01 2.92545000e+01	N
atom  4.86236000e+00 1.39417000e+01 2.63532000e+01	Si
atom  4.61671000e+00 1.43263000e+01 1.98252000e+01	N
atom  1.12316000e+00 1.31521000e+01 3.26540000e+01	Si
atom  3.66404000e-01 1.32306000e+01 3.11362000e+01	N
atom  2.84197000e+00 1.34853000e+01 3.27103000e+01	N
atom  3.70823000e+00 1.22342000e+01 3.18612000e+01	Si
atom  3.96988000e+00 1.44264000e+01 3.36725000e+01	Si
atom  4.55772000e+00 1.29416000e+01 3.05552000e+01	N
atom  5.30338000e+00 1.26013000e+01 3.87961000e+01	Si
atom  7.89851000e+00 1.30592000e+01 3.02666000e+01	Si
atom  8.74045000e+00 1.33798000e+01 3.31294000e+01	Si
atom  7.43424000e+00 1.24293000e+01 3.37305000e+01	N
atom  8.82198000e+00 1.22573000e+01 3.15920000e+01	N
atom  6.92023000e+00 1.43641000e+01 3.06401000e+01	N
atom  7.00209000e+00 1.43746000e+01 3.72744000e+01	N
atom  4.98763000e+00 1.34834000e+01 3.47648000e+01	N
atom  1.57989000e+00 1.35167000e+01 3.73877000e+01	N
atom  3.04610000e+00 1.42096000e+01 3.79545000e+01	Si
atom  4.45439000e+00 1.34331000e+01 3.74943000e+01	N
atom  8.76291000e+00 1.38519000e+01 3.93489000e+01	N
atom  5.48950000e+00 1.41135000e+01 3.62791000e+01	Si
atom  8.52842000e+00 1.36841000e+01 3.76179000e+01	Si
atom  1.06991000e+00 1.56333000e+01 1.67159000e+00	Si
atom  2.16900000e+00 1.58399000e+01 3.04340000e+00	N
atom  1.22231000e+00 1.65286000e+01 2.13948000e-01	N
atom  1.21893000e+00 1.65757000e+01 4.39813000e+00	Si
atom  4.57379000e+00 1.46718000e+01 7.56912000e-01	Si
atom  3.20384000e-01 1.51468000e+01 4.90207000e+00	N
atom  4.83719000e+00 1.63199000e+01 1.35333000e+00	N
atom  4.88593000e+00 1.59167000e+01 4.40423000e+00	N
atom  7.50583000e+00 1.58566000e+01 6.93167000e-01	N
atom  7.44719000e+00 1.51624000e+01 3.70998000e+00	N
atom  -3.89085000e-01 1.60639000e+01 2.52949000e+00	N
atom  3.59114000e+00 1.54048000e+01 8.30070000e+00	N
atom  2.42270000e+00 1.64768000e+01 9.00664000e+00	Si
atom  8.27384000e+00 1.51526000e+01 9.07311000e+00	N
atom  4.91761000e+00 1.52686000e+01 9.45623000e+00	Si
atom  6.18324000e+00 1.48203000e+01 4.86473000e+00	Si
atom  6.05741000e+00 1.51554000e+01 6.62827000e+00	N
atom  5.91566000e+00 1.67419000e+01 7.34920000e+00	Si
atom  5.83598000e+00 1.67411000e+01 9.24479000e+00	N
atom  2.95583000e+00 1.50365000e+01 1.15998000e+01	Si
atom  2.19794000e+00 1.59412000e+01 1.29143000e+01	N
atom  2.55689000e-01 1.47291000e+01 1.03240000e+01	Si
atom  3.78921000e-01 1.59841000e+01 1.28590000e+01	Si
atom  1.81717000e+00 1.55315000e+01 1.03515000e+01	N
atom  1.96144000e-02 1.58610000e+01 1.44706000e+01	N
atom  4.41723000e+00 1.57304000e+01 1.10561000e+01	N
atom  7.94568000e+00 1.48675000e+01 1.44166000e+01	Si
atom  9.27013000e+00 1.60493000e+01 1.40481000e+01	N
atom  2.51548000e+00 1.56790000e+01 1.56649000e+01	N
atom  2.56260000e+00 1.56152000e+01 1.83490000e+01	N
atom  7.23967000e-01 1.59185000e+01 1.60124000e+01	Si
atom  8.25713000e-02 1.58912000e+01 1.94162000e+01	N
atom  3.41492000e+00 1.63916000e+01 1.69530000e+01	Si
atom  7.12123000e+00 1.51794000e+01 1.85933000e+01	N