lattice_vector  3.99175627e+01 0.00000000e+00 0.00000000e+00
lattice_vector  2.44424577e-15 3.99175627e+01 0.00000000e+00
lattice_vector  2.44424577e-15 2.44424577e-15 3.99175627e+01
atom  6.63484000e-01 3.12274000e+00 5.26745000e-01	Si
atom  1.11760000e+00 3.50631000e+00 4.47584000e+00	N
atom  4.18184000e-01 4.99898000e+00 3.74541000e+00	Si
atom  -4.18774000e-01 2.08683000e+00 1.39029000e+00	N
atom  3.47153000e-01 8.30113000e+00 3.75890000e-01	Si
atom  4.93772000e-01 6.53126000e+00 4.24602000e-01	N
atom  1.65332000e+00 8.51390000e+00 1.52178000e+00	N
atom  1.91818000e+00 6.79100000e+00 1.54003000e+00	Si
atom  1.82124000e+00 5.59654000e+00 2.84824000e+00	N
atom  -1.57741000e-02 3.22430000e+00 9.18409000e+00	Si
atom  8.22566000e-01 1.40118000e+00 5.90368000e+00	N
atom  1.20758000e-01 4.74584000e+00 8.44956000e+00	N
atom  1.55545000e+00 2.34888000e+00 8.87983000e+00	N
atom  -2.36042000e-01 2.63887000e+00 5.21542000e+00	Si
atom  -5.12342000e-01 5.19021000e+00 6.72386000e+00	Si
atom  -1.35463000e-01 5.79750000e+00 5.18184000e+00	N
atom  4.15857000e-01 8.38303000e+00 5.34733000e+00	N
atom  1.49708000e+00 7.24057000e+00 7.72316000e+00	N
atom  8.09709000e-02 9.29007000e+00 9.04197000e+00	N
atom  1.43794000e+00 5.87391000e+00 8.88441000e+00	Si
atom  1.52477000e+00 8.26121000e+00 9.20335000e+00	Si
atom  1.00540000e+00 1.00492000e+01 5.22723000e+00	Si
atom  1.87238000e+00 7.87965000e+00 6.16759000e+00	Si
atom  7.41431000e-01 2.46512000e+00 1.23426000e+01	Si
atom  1.13933000e+00 3.58358000e+00 1.35918000e+01	N
atom  -1.14054000e-01 3.28465000e+00 1.09414000e+01	N
atom  -1.48165000e-01 1.11995000e+00 1.27790000e+01	N
atom  7.17802000e-02 4.92604000e+00 1.39252000e+01	Si
atom  1.66932000e+00 1.09020000e+00 1.00175000e+01	Si
atom  2.61266000e-02 4.38372000e-01 1.03043000e+01	N
atom  3.34186000e-01 6.90328000e+00 1.17284000e+01	Si
atom  7.33183000e-01 8.95711000e+00 1.42212000e+01	N
atom  1.65110000e+00 7.48656000e+00 1.42405000e+01	Si
atom  2.81371000e-01 6.70074000e+00 1.00411000e+01	N
atom  1.83178000e+00 7.07600000e+00 1.25591000e+01	N
atom  1.48475000e+00 2.84631000e+00 1.65148000e+01	Si
atom  1.21604000e+00 4.28023000e+00 1.89144000e+01	Si
atom  1.15709000e+00 1.25600000e+00 1.59284000e+01	N
atom  2.90507000e-01 4.11814000e+00 1.67030000e+01	N
atom  -3.09008000e-01 5.07526000e+00 1.96216000e+01	N
atom  9.18253000e-01 6.07939000e+00 1.49099000e+01	N
atom  1.24048000e-01 8.27747000e+00 1.91011000e+01	N
atom  1.88282000e+00 5.58880000e+00 1.80267000e+01	N
atom  1.84460000e+00 8.47156000e+00 1.92541000e+01	Si
atom  9.02459000e-01 5.77367000e+00 1.65804000e+01	Si
atom  3.91874000e-01 4.91067000e+00 2.12520000e+01	Si
atom  6.34659000e-01 9.74656000e-01 2.07830000e+01	N
atom  1.05822000e+00 6.33514000e-01 2.34563000e+01	N
atom  1.73317000e+00 4.14405000e+00 2.05845000e+01	N
atom  -4.07003000e-01 4.58023000e-01 2.45584000e+01	Si
atom  2.30538000e-01 5.15766000e+00 2.38503000e+01	Si
atom  1.05757000e+00 5.94611000e+00 2.24121000e+01	N
atom  1.03890000e+00 8.50876000e+00 2.33492000e+01	N
atom  1.95120000e+00 7.41705000e+00 2.24110000e+01	Si
atom  1.15950000e+00 1.02041000e+01 2.29222000e+01	Si
atom  7.68518000e-01 4.38848000e+00 2.53904000e+01	N
atom  1.16957000e+00 2.78270000e+00 2.59590000e+01	Si
atom  1.16425000e-01 1.33539000e+00 2.59875000e+01	N
atom  1.44463000e+00 2.79062000e+00 2.76684000e+01	N
atom  1.03991000e-01 3.33420000e+00 2.87754000e+01	Si
atom  3.90247000e-01 7.70344000e-01 2.75950000e+01	Si
atom  -1.93574000e-01 1.55230000e+00 2.91167000e+01	N
atom  5.64399000e-01 6.90224000e+00 2.71774000e+01	N
atom  1.55011000e+00 7.50009000e+00 2.85228000e+01	Si
atom  9.43542000e-01 5.24427000e+00 2.69295000e+01	Si
atom  1.83344000e+00 1.00408000e+01 2.85471000e+01	Si
atom  4.43715000e-01 8.86176000e+00 2.89362000e+01	N
atom  4.48267000e-01 1.75497000e+00 3.19545000e+01	N
atom  2.63499000e-01 2.74486000e+00 3.43650000e+01	N
atom  1.58185000e+00 1.55868000e+00 3.33222000e+01	Si
atom  1.10555000e+00 3.84027000e+00 3.00492000e+01	N
atom  1.64410000e-01 6.19288000e-01 3.06674000e+01	Si
atom  9.41508000e-01 3.46399000e-01 3.44521000e+01	N
atom  1.20852000e+00 7.18918000e+00 3.16555000e+01	Si
atom  1.60094000e+00 1.00358000e+01 3.31862000e+01	Si
atom  -4.01605000e-01 7.87011000e+00 3.13960000e+01	N
atom  1.56289000e+00 5.69248000e+00 3.24707000e+01	N
atom  1.80905000e+00 6.84766000e+00 3.00526000e+01	N
atom  -2.99547000e-01 4.19768000e+00 3.94339000e+01	N
atom  1.71400000e+00 4.82116000e+00 3.50946000e+01	N
atom  9.09390000e-01 4.01893000e+00 3.80984000e+01	Si
atom  1.37693000e-01 4.11530000e+00 3.53650000e+01	Si
atom  4.38036000e-01 1.59016000e+00 3.57052000e+01	Si
atom  2.18676000e-01 3.13273000e+00 3.68010000e+01	N
atom  1.28109000e+00 1.23591000e+00 3.83400000e+01	Si
atom  1.71841000e+00 2.76828000e+00 3.90495000e+01	N
atom  1.87779000e+00 1.16147000e+00 3.67060000e+01	N
atom  -4.57343000e-01 9.38580000e-01 3.88294000e+01	N
atom  1.83020000e+00 5.49887000e+00 3.78554000e+01	N
atom  9.23253000e-01 7.26190000e+00 3.62749000e+01	N
atom  2.34404000e-01 8.48764000e+00 3.53371000e+01	Si
atom  7.04867000e-01 6.91175000e+00 3.79934000e+01	Si
atom  1.63079000e+00 9.39545000e+00 3.48925000e+01	N
atom  1.26572000e+00 8.34094000e+00 3.87982000e+01	N
atom  6.27848000e-01 1.17451000e+01 1.00198000e+00	N
atom  8.08949000e-01 1.42941000e+01 3.00329000e+00	Si
atom  4.41783000e-01 1.13972000e+01 2.74306000e+00	Si
atom  -1.95065000e-01 1.28838000e+01 3.30156000e+00	N
atom  1.63828000e+00 1.08654000e+01 3.84068000e+00	N
atom  1.34292000e+00 1.49625000e+01 4.50994000e+00	N
atom  1.19891000e-02 1.56109000e+01 2.03946000e+00	N
atom  9.30009000e-01 1.81044000e+01 9.06546000e-01	N
atom  1.30996000e+00 1.64875000e+01 1.27324000e+00	Si
atom  1.89855000e+00 1.79413000e+01 4.46369000e+00	N
atom  1.89865000e+00 1.95725000e+01 6.20260000e-01	Si
atom  1.99637000e+00 1.55946000e+01 -2.85903000e-04	N
atom  -3.36230000e-01 1.87353000e+01 -1.43936000e-01	Si
atom  1.43458000e+00 1.96675000e+01 4.91250000e+00	Si
atom  8.33316000e-01 1.35515000e+01 7.18115000e+00	N
atom  1.11531000e+00 1.33111000e+01 8.87624000e+00	Si
atom  -1.67520000e-02 1.10453000e+01 6.28462000e+00	N
atom  1.70660000e+00 1.47029000e+01 6.17367000e+00	Si
atom  -2.28812000e-01 1.39592000e+01 9.78319000e+00	N
atom  1.28751000e+00 2.02196000e+01 6.59307000e+00	N
atom  1.09988000e+00 1.62744000e+01 6.66088000e+00	N
atom  7.51488000e-01 1.63925000e+01 9.40755000e+00	N
atom  8.80070000e-01 1.66002000e+01 5.00236000e+00	Si
atom  -3.19785000e-01 1.91123000e+01 5.12134000e+00	N
atom  -2.76800000e-02 1.67991000e+01 7.87102000e+00	Si
atom  8.63100000e-01 1.29663000e+01 1.26669000e+01	N
atom  1.66233000e+00 1.31821000e+01 1.41975000e+01	Si
atom  1.79038000e+00 1.01862000e+01 1.36822000e+01	Si
atom  1.62925000e+00 1.18699000e+01 9.83289000e+00	N
atom  9.16812000e-01 1.80058000e+01 1.30955000e+01	N
atom  3.09917000e-01 1.90971000e+01 1.05223000e+01	N
atom  3.43931000e-01 1.76136000e+01 1.46694000e+01	Si
atom  -2.67382000e-01 1.88604000e+01 1.21819000e+01	Si
atom  -4.04944000e-01 1.56267000e+01 1.03836000e+01	Si
atom  1.88161000e+00 1.97429000e+01 1.03120000e+01	Si
atom  -1.76684000e-01 1.34786000e+01 1.82358000e+01	N
atom  1.39976000e+00 1.14155000e+01 1.90998000e+01	Si
atom  1.18888000e+00 1.42545000e+01 1.90030000e+01	Si
atom  2.55682000e-01 1.26846000e+01 1.67197000e+01	Si
atom  6.67920000e-01 1.38271000e+01 1.54538000e+01	N
atom  1.68500000e+00 1.18472000e+01 1.74128000e+01	N
atom  -2.98837000e-01 1.09251000e+01 1.92299000e+01	N
atom  9.40023000e-01 1.52291000e+01 1.63962000e+01	Si
atom  6.71861000e-01 1.84196000e+01 1.83985000e+01	N
atom  -2.97477000e-01 1.90194000e+01 1.54767000e+01	N
atom  1.54021000e+00 1.66168000e+01 1.54780000e+01	N
atom  -1.47046000e-01 1.98624000e+01 1.89243000e+01	Si
atom  7.27405000e-01 1.58641000e+01 1.96766000e+01	N
atom  -2.87744000e-01 1.68558000e+01 1.86255000e+01	Si
atom  1.23649000e+00 1.29647000e+01 2.28521000e+01	N
atom  9.19743000e-01 1.08865000e+01 2.44920000e+01	N
atom  1.69501000e+00 1.29237000e+01 2.00011000e+01	N
atom  1.70935000e+00 1.25299000e+01 2.44741000e+01	Si
atom  -3.69682000e-01 1.07551000e+01 2.22069000e+01	N
atom  -3.92443000e-01 1.24810000e+01 2.24076000e+01	Si
atom  1.69259000e+00 1.65097000e+01 2.09554000e+01	Si
atom  1.68161000e+00 1.99050000e+01 2.16951000e+01	Si
atom  7.72957000e-01 1.94766000e+01 2.32195000e+01	N
atom  3.36931000e-01 1.65631000e+01 2.21014000e+01	N
atom  1.25701000e-01 1.66024000e+01 2.38100000e+01	Si
atom  1.54061000e+00 1.87404000e+01 2.46353000e+01	Si
atom  1.76784000e+00 1.70510000e+01 2.43703000e+01	N
atom  5.23850000e-02 1.06251000e+01 2.60286000e+01	Si
atom  4.72207000e-02 1.29285000e+01 2.86824000e+01	N
atom  1.26488000e+00 1.09493000e+01 2.72289000e+01	N
atom  9.19372000e-01 1.33238000e+01 2.57991000e+01	N
atom  1.27200000e+00 1.26741000e+01 2.74654000e+01	Si
atom  1.50297000e+00 1.50334000e+01 2.55681000e+01	Si
atom  1.82876000e+00 1.58373000e+01 2.69745000e+01	N
atom  1.40341000e+00 1.75065000e+01 2.74035000e+01	Si
atom  -1.98945000e-03 1.52570000e+01 2.47622000e+01	N
atom  1.68157000e-02 1.74073000e+01 2.84014000e+01	N
atom  8.46460000e-01 1.86334000e+01 2.62242000e+01	N
atom  -1.78244000e-01 1.99883000e+01 2.67772000e+01	Si
atom  7.26777000e-01 1.28484000e+01 3.37174000e+01	N
atom  -5.20925000e-02 1.36020000e+01 3.03855000e+01	Si
atom  1.51440000e+00 1.36898000e+01 3.10960000e+01	N
atom  -1.01647000e-01 1.03517000e+01 3.30408000e+01	N
atom  4.00477000e-01 1.70706000e+01 3.29354000e+01	Si
atom  8.24472000e-01 1.87163000e+01 3.34060000e+01	N
atom  -1.45514000e-01 1.74805000e+01 3.12607000e+01	N
atom  2.54688000e-01 1.65598000e+01 2.98879000e+01	Si
atom  -2.32110000e-01 1.07140000e+01 3.73581000e+01	Si
atom  1.41376000e+00 1.08083000e+01 3.78903000e+01	N
atom  1.57365000e-01 1.30201000e+01 3.84132000e+01	N
atom  7.87214000e-01 1.31001000e+01 3.54658000e+01	Si
atom  -1.53756000e-01 1.44946000e+01 3.59581000e+01	N
atom  1.77654000e+00 1.24612000e+01 3.80422000e+01	Si
atom  -3.79260000e-01 1.18329000e+01 3.61384000e+01	N
atom  1.27862000e+00 1.97280000e+01 3.68549000e+01	N
atom  3.21205000e-03 1.86074000e+01 3.67856000e+01	Si
atom  7.21248000e-01 1.71789000e+01 3.59163000e+01	N
atom  6.22246000e-01 2.02394000e+01 3.95285000e+01	N
atom  8.87671000e-01 2.11097000e+01 3.93042000e+00	N
atom  1.37044000e+00 2.19416000e+01 2.46423000e+00	Si
atom  3.12283000e-01 2.25469000e+01 1.28393000e+00	N
atom  1.63268000e+00 2.44822000e+01 4.27864000e+00	Si
atom  1.94794000e-01 2.98765000e+01 7.54521000e-01	N
atom  8.06775000e-01 2.84816000e+01 3.59592000e+00	Si
atom  1.10425000e+00 2.83793000e+01 6.62169000e-01	Si
atom  2.87880000e-01 2.55552000e+01 4.61848000e+00	N
atom  1.72053000e+00 2.80830000e+01 2.24092000e+00	N
atom  4.15762000e-01 2.69477000e+01 3.98627000e-02	N
atom  -8.87457000e-02 2.21941000e+01 4.91498000e+00	Si
atom  1.47884000e+00 2.24847000e+01 8.29829000e+00	N
atom  1.18842000e+00 2.40305000e+01 7.14689000e+00	Si
atom  1.19388000e+00 2.33658000e+01 5.50974000e+00	N
atom  -2.18828000e-01 2.23984000e+01 8.69065000e+00	Si
atom  9.65454000e-01 3.01640000e+01 9.63033000e+00	N
atom  1.40613000e+00 2.84396000e+01 9.84434000e+00	Si
atom  -1.73995000e-01 2.78642000e+01 9.12700000e+00	N
atom  1.34426000e+00 2.78728000e+01 5.12755000e+00	N
atom  9.71023000e-01 2.58651000e+01 7.29943000e+00	N
atom  2.94486000e-01 2.67153000e+01 5.97916000e+00	Si
atom  3.18754000e-01 2.61001000e+01 9.03123000e+00	Si
atom  1.74150000e-01 2.18389000e+01 1.15544000e+01	Si
atom  2.39078000e-01 2.31500000e+01 1.27487000e+01	N
atom  -1.38882000e-01 2.43176000e+01 1.14043000e+01	Si
atom  1.71415000e+00 2.13886000e+01 1.09928000e+01	N
atom  8.95851000e-01 2.51532000e+01 1.03662000e+01	N
atom  -4.25384000e-01 2.29326000e+01 1.43005000e+01	Si
atom  9.34240000e-01 2.68696000e+01 1.35571000e+01	N
atom  -6.83486000e-02 2.74182000e+01 1.47767000e+01	Si
atom  6.78250000e-01 2.03767000e+01 1.59699000e+01	Si
atom  7.62144000e-01 2.19623000e+01 1.52086000e+01	N
atom  1.12239000e-01 2.09191000e+01 1.75262000e+01	N
atom  7.83575000e-02 2.40004000e+01 1.73345000e+01	N
atom  1.52421000e+00 2.41917000e+01 1.82050000e+01	Si
atom  1.52326000e+00 2.32844000e+01 1.96859000e+01	N
atom  7.32159000e-01 2.89146000e+01 1.53866000e+01	N
atom  8.79735000e-01 2.80176000e+01 1.69728000e+01	Si
atom  2.11544000e-01 2.66021000e+01 1.62627000e+01	N
atom  -1.41776000e-01 2.86437000e+01 1.81609000e+01	N
atom  1.04519000e+00 2.38912000e+01 2.26925000e+01	Si
atom  3.01427000e-01 2.22763000e+01 2.02777000e+01	Si
atom  -7.11785000e-02 2.30693000e+01 2.17533000e+01	N
atom  6.76499000e-01 2.05517000e+01 2.03877000e+01	N
atom  1.81587000e-01 2.51320000e+01 2.34519000e+01	N
atom  1.09517000e+00 2.91147000e+01 2.34964000e+01	Si
atom  1.23408000e+00 2.75431000e+01 2.27572000e+01	N
atom  -1.68968000e-01 2.65589000e+01 2.24629000e+01	Si
atom  1.00404000e-01 2.84642000e+01 1.98546000e+01	Si
atom  -5.43097000e-01 3.00103000e+01 2.02824000e+01	N
atom  -5.21717000e-01 2.95133000e+01 2.40053000e+01	N
atom  3.26691000e-01 2.09414000e+01 2.81331000e+01	N
atom  1.18013000e+00 2.46271000e+01 2.70866000e+01	Si
atom  9.64441000e-01 2.22118000e+01 2.51521000e+01	Si
atom  4.93545000e-01 2.37437000e+01 2.57873000e+01	N
atom  -3.50030000e-01 2.10316000e+01 2.53515000e+01	N
atom  1.86643000e+00 2.18611000e+01 2.79691000e+01	Si
atom  6.74023000e-01 2.86889000e+01 2.92967000e+01	Si
atom  8.07152000e-01 2.88202000e+01 2.63218000e+01	Si
atom  -1.89782000e-01 2.55269000e+01 2.76739000e+01	N
atom  1.49118000e+00 2.80970000e+01 2.77602000e+01	N
atom  9.87210000e-01 2.33921000e+01 3.29193000e+01	N
atom  5.16761000e-01 2.20892000e+01 3.06201000e+01	N
atom  4.15318000e-01 2.49023000e+01 3.05011000e+01	N
atom  3.47650000e-01 2.26943000e+01 3.43552000e+01	Si
atom  1.05366000e-01 2.10332000e+01 3.39348000e+01	N
atom  -1.90177000e-02 2.35150000e+01 3.14819000e+01	Si
atom  1.55308000e+00 2.03047000e+01 3.32714000e+01	Si
atom  1.08509000e+00 2.67305000e+01 3.36309000e+01	Si
atom  1.42020000e+00 2.66270000e+01 3.07612000e+01	Si
atom  -2.90593000e-02 2.80256000e+01 3.32982000e+01	N
atom  -1.44430000e-01 2.72522000e+01 2.98870000e+01	N
atom  -2.19494000e-01 2.58184000e+01 3.43061000e+01	N
atom  2.44495000e-01 2.19442000e+01 3.95476000e+01	Si
atom  1.29846000e+00 2.32400000e+01 3.56780000e+01	N
atom  1.59012000e+00 2.22439000e+01 3.85033000e+01	N
atom  6.79259000e-01 2.47023000e+01 3.79422000e+01	N
atom  1.85461000e+00 2.35070000e+01 3.72921000e+01	Si
atom  1.33187000e+00 2.72332000e+01 3.72076000e+01	N
atom  1.22188000e+00 2.62138000e+01 3.85571000e+01	Si
atom  1.78401000e+00 2.88968000e+01 3.75598000e+01	Si
atom  7.57712000e-01 3.35262000e+01 2.95599000e+00	Si
atom  3.56909000e-01 3.26123000e+01 1.59604000e+00	N
atom  -1.66544000e-01 3.10509000e+01 2.04486000e+00	Si
atom  1.73977000e+00 3.48654000e+01 2.42248000e+00	N
atom  1.58609000e+00 3.26494000e+01 4.23081000e+00	N
atom  6.83871000e-01 3.30906000e+01 -9.09114000e-02	Si
atom  2.85158000e-01 3.02328000e+01 3.54884000e+00	N
atom  1.14010000e+00 3.56584000e+01 1.01611000e+00	Si
atom  1.06085000e+00 3.76325000e+01 2.99413000e+00	N
atom  -2.53231000e-01 3.76626000e+01 1.98219000e+00	Si
atom  -2.51700000e-01 3.90924000e+01 8.47548000e-01	N
atom  1.68807000e+00 3.72934000e+01 6.02367000e-01	N
atom  1.20346000e+00 3.73896000e+01 4.66665000e+00	Si
atom  -5.20341000e-01 3.59391000e+01 1.41474000e+00	N
atom  8.42191000e-01 3.12761000e+01 4.91753000e+00	Si
atom  1.10961000e+00 3.49110000e+01 7.03205000e+00	N
atom  3.21255000e-01 3.96792000e+01 6.17805000e+00	Si
atom  1.68080000e+00 3.88476000e+01 5.33081000e+00	N
atom  1.15853000e+00 3.84152000e+01 8.94640000e+00	Si
atom  2.32806000e-01 3.93819000e+01 7.88328000e+00	N
atom  -3.57235000e-01 3.68063000e+01 5.20434000e+00	N
atom  -2.87267000e-01 3.57597000e+01 6.60483000e+00	Si
atom  6.57846000e-01 3.26953000e+01 1.30346000e+01	Si
atom  -3.16658000e-02 3.42885000e+01 1.33515000e+01	N
atom  9.31213000e-01 3.17186000e+01 1.43613000e+01	N
atom  1.85652000e-01 3.44175000e+01 1.03506000e+01	N
atom  1.75059000e+00 3.38468000e+01 1.05296000e+01	Si
atom  -4.84331000e-01 3.19229000e+01 1.19665000e+01	N
atom  1.25863000e+00 3.52730000e+01 1.40685000e+01	Si
atom  1.50868000e+00 3.88963000e+01 1.39411000e+01	N
atom  -3.16111000e-02 3.93837000e+01 1.34415000e+01	Si
atom  1.01525000e+00 3.71332000e+01 1.01263000e+01	N
atom  -1.60142000e-01 3.60541000e+01 9.68537000e+00	Si
atom  -4.75283000e-01 3.24803000e+01 1.71373000e+01	Si
atom  1.30112000e+00 3.26008000e+01 1.71643000e+01	N
atom  1.82203000e+00 3.12204000e+01 1.95581000e+01	N
atom  -3.85031000e-02 3.03973000e+01 1.49071000e+01	Si
atom  1.91093000e+00 3.96190000e+01 1.55437000e+01	Si
atom  1.18984000e+00 3.85335000e+01 1.66895000e+01	N
atom  4.84245000e-01 3.58045000e+01 1.55742000e+01	N
atom  1.55272000e+00 3.68277000e+01 1.64728000e+01	Si
atom  7.09798000e-01 3.92866000e+01 1.82465000e+01	Si
atom  2.52563000e-01 3.81257000e+01 1.95018000e+01	N
atom  1.41984000e+00 3.53690000e+01 1.94671000e+01	Si
atom  1.05595000e+00 3.42987000e+01 2.27039000e+01	N
atom  3.31610000e-01 3.21357000e+01 2.43364000e+01	N
atom  1.26423000e+00 3.25169000e+01 2.28442000e+01	Si
atom  2.81270000e-01 3.24270000e+01 2.13735000e+01	N
atom  -1.36082000e-01 3.48723000e+01 1.98954000e+01	N
atom  1.07266000e-01 3.15641000e+01 1.99410000e+01	Si
atom  -1.96815000e-01 3.41630000e+01 2.15442000e+01	Si
atom  1.45206000e+00 3.68554000e+01 2.36482000e+01	N
atom  1.34697000e+00 3.80192000e+01 2.09257000e+01	Si
atom  -2.73555000e-02 3.84344000e+01 2.19323000e+01	N
atom  1.66714000e+00 3.63065000e+01 2.10035000e+01	N
atom  -5.44934000e-02 4.01726000e+01 2.21409000e+01	Si
atom  -1.10264000e-01 3.74420000e+01 2.35125000e+01	Si
atom  1.40599000e+00 3.24930000e+01 2.95772000e+01	N
atom  7.84282000e-01 3.34473000e+01 2.68229000e+01	N
atom  3.35135000e-01 3.32132000e+01 2.84032000e+01	Si
atom  5.30617000e-01 3.06058000e+01 2.66613000e+01	N
atom  1.18565000e+00 3.20662000e+01 2.58814000e+01	Si
atom  8.57451000e-01 3.49813000e+01 2.88635000e+01	N
atom  9.13454000e-02 3.81669000e+01 2.64421000e+01	Si
atom  1.76099000e+00 3.84078000e+01 2.59498000e+01	N
atom  7.93952000e-01 3.52995000e+01 2.70587000e+01	Si
atom  -3.20449000e-01 3.91445000e+01 2.78553000e+01	N
atom  5.91004000e-01 3.47856000e+01 3.25757000e+01	Si
atom  1.00877000e+00 3.23155000e+01 3.12728000e+01	Si
atom  1.40388000e+00 3.14928000e+01 3.42639000e+01	N
atom  -1.89262000e-01 3.21934000e+01 3.42460000e+01	Si
atom  1.82057000e+00 3.37875000e+01 3.17290000e+01	N
atom  1.30019000e+00 3.52902000e+01 3.41668000e+01	N
atom  1.20962000e+00 3.92700000e+01 3.10073000e+01	N
atom  9.27378000e-01 3.85753000e+01 3.42773000e+01	Si
atom  5.22225000e-01 3.77211000e+01 3.14764000e+01	Si
atom  1.51721000e+00 3.62632000e+01 3.16907000e+01	N
atom  -2.01432000e-01 3.78684000e+01 3.30426000e+01	N
atom  1.86757000e+00 3.52253000e+01 3.02738000e+01	Si
atom  1.41379000e+00 3.15512000e+01 3.60225000e+01	Si
atom  1.06241000e+00 3.44754000e+01 3.57649000e+01	Si
atom  8.16775000e-02 3.29008000e+01 3.59362000e+01	N
atom  3.91211000e-01 3.07688000e+01 3.88432000e+01	Si
atom  1.27637000e+00 3.46322000e+01 3.94740000e+01	N
atom  -4.24616000e-01 3.23621000e+01 3.86871000e+01	N
atom  1.07340000e+00 3.04168000e+01 3.72732000e+01	N
atom  5.93042000e-02 3.78728000e+01 3.55629000e+01	N
atom  1.93111000e+00 3.97947000e+01 3.92653000e+01	N
atom  -1.64627000e-01 3.79817000e+01 3.83376000e+01	N
atom  8.55167000e-01 3.84814000e+01 3.95594000e+01	Si
atom  6.87222000e-01 3.71927000e+01 3.70018000e+01	Si
atom  7.60420000e-02 3.55436000e+01 3.67916000e+01	N
atom  2.82723000e+00 4.20550000e+00 2.70800000e+00	Si
atom  3.67545000e+00 3.43913000e+00 4.07098000e+00	N
atom  3.07111000e+00 9.52198000e-01 4.31199000e+00	N
atom  3.24421000e+00 3.01922000e+00 2.01391000e-01	Si
atom  2.01501000e+00 3.30661000e+00 1.48259000e+00	N
atom  4.11269000e+00 1.54758000e+00 1.95126000e-01	N
atom  3.93540000e+00 8.97007000e+00 2.73141000e+00	N
atom  3.13707000e+00 9.46722000e+00 1.23040000e+00	Si
atom  3.35615000e+00 6.42492000e+00 6.68894000e-01	N
atom  2.39694000e+00 2.36755000e+00 4.96241000e+00	Si
atom  3.01789000e+00 3.00961000e+00 6.47393000e+00	N
atom  2.83088000e+00 4.84937000e+00 8.40702000e+00	N
atom  2.95758000e+00 3.04986000e+00 8.16604000e+00	Si
atom  2.54539000e+00 9.50073000e+00 5.97865000e+00	N
atom  3.61145000e+00 5.82940000e+00 7.03102000e+00	Si
atom  2.82935000e+00 9.31035000e+00 9.00341000e+00	N
atom  2.92329000e+00 6.61662000e+00 5.66356000e+00	N
atom  4.05719000e+00 5.77207000e+00 9.44249000e+00	Si
atom  4.33321000e+00 6.95330000e+00 8.07508000e+00	N
atom  3.67213000e+00 2.32045000e+00 1.37082000e+01	N
atom  3.81170000e+00 1.98320000e+00 1.20827000e+01	Si
atom  2.19637000e+00 1.83734000e+00 1.15056000e+01	N
atom  2.79270000e+00 3.78600000e+00 1.40658000e+01	Si
atom  3.86156000e+00 5.15460000e+00 1.36374000e+01	N
atom  3.15605000e+00 7.16943000e+00 1.14914000e+01	Si
atom  2.61327000e+00 6.82227000e+00 9.93998000e+00	N
atom  4.06278000e+00 1.02501000e+01 1.17704000e+01	Si
atom  4.18934000e+00 8.56520000e+00 1.17327000e+01	N
atom  2.74630000e+00 3.65897000e+00 1.57556000e+01	N
atom  3.42306000e+00 2.33516000e+00 1.87419000e+01	Si
atom  4.23250000e+00 4.12329000e+00 1.66073000e+01	Si
atom  1.88963000e+00 2.81375000e+00 1.82067000e+01	N
atom  4.33869000e+00 3.78774000e+00 1.82889000e+01	N
atom  3.76102000e+00 8.44233000e+00 1.63945000e+01	Si
atom  4.01867000e+00 1.00277000e+01 1.83727000e+01	Si
atom  2.81407000e+00 7.98475000e+00 1.78657000e+01	N
atom  3.44220000e+00 6.34005000e+00 1.79274000e+01	Si
atom  4.20609000e+00 5.83816000e+00 1.63730000e+01	N
atom  3.55121000e+00 1.01183000e+01 1.66364000e+01	N
atom  3.17372000e+00 7.78886000e+00 1.49036000e+01	N
atom  2.51555000e+00 1.00930000e+01 1.92852000e+01	N
atom  3.06293000e+00 3.33665000e+00 2.13530000e+01	Si
atom  3.32308000e+00 1.92512000e+00 2.04410000e+01	N
atom  3.04287000e+00 2.94999000e+00 2.30235000e+01	N
atom  2.64843000e+00 1.33303000e+00 2.37225000e+01	Si
atom  2.21479000e+00 6.06321000e-01 2.03375000e+01	Si
atom  3.89901000e+00 3.46616000e+00 2.44306000e+01	Si
atom  3.94157000e+00 3.36035000e-01 2.32264000e+01	N
atom  4.26595000e+00 4.55537000e+00 2.11544000e+01	N
atom  3.36644000e+00 6.86393000e+00 2.32134000e+01	N
atom  3.35422000e+00 9.55469000e+00 2.10439000e+01	Si
atom  2.26320000e+00 8.16983000e+00 2.08829000e+01	N
atom  4.23288000e+00 8.12891000e+00 2.40126000e+01	Si
atom  4.22387000e+00 9.19404000e+00 2.26310000e+01	N
atom  4.24831000e+00 2.18847000e+00 2.79423000e+01	N
atom  2.68724000e+00 2.28174000e+00 2.53384000e+01	N
atom  2.68011000e+00 1.87562000e+00 2.85883000e+01	Si
atom  4.11964000e+00 1.83730000e+00 2.62401000e+01	Si
atom  2.26185000e+00 5.17420000e+00 2.97745000e+01	Si
atom  3.94938000e+00 5.28711000e+00 2.73475000e+01	Si
atom  2.05974000e+00 3.90579000e-01 2.78526000e+01	N
atom  2.34333000e+00 5.32824000e+00 2.80288000e+01	N
atom  4.24364000e+00 6.63428000e+00 2.62946000e+01	N
atom  4.04663000e+00 8.30036000e+00 2.68890000e+01	Si
atom  2.71203000e+00 8.62174000e+00 2.79301000e+01	N
atom  3.76297000e+00 9.09412000e+00 2.53342000e+01	N
atom  2.65398000e+00 3.02190000e+00 3.28902000e+01	N
atom  2.59787000e+00 4.64337000e+00 3.35075000e+01	Si
atom  3.51112000e+00 4.25735000e+00 3.05749000e+01	N
atom  2.62530000e+00 1.51109000e+00 3.03454000e+01	N
atom  3.12934000e+00 5.86116000e-01 3.28679000e+01	N
atom  4.08848000e+00 2.04360000e+00 3.34394000e+01	Si
atom  4.28416000e+00 4.85710000e+00 3.41494000e+01	N
atom  2.20997000e+00 2.98180000e+00 3.11950000e+01	Si
atom  2.17047000e+00 8.50037000e+00 3.22780000e+01	N
atom  3.88744000e+00 8.46163000e+00 3.25147000e+01	Si
atom  4.14871000e+00 9.34114000e+00 3.39964000e+01	N
atom  3.62476000e+00 1.07178000e+00 3.62659000e+01	Si
atom  3.95331000e+00 4.25887000e+00 3.91604000e+01	N
atom  4.02725000e+00 2.27091000e+00 3.51276000e+01	N
atom  2.16912000e+00 6.06435000e+00 3.61404000e+01	Si
atom  3.16858000e+00 8.80146000e+00 3.54024000e+01	Si
atom  3.55018000e+00 7.02535000e+00 3.54974000e+01	N
atom  3.63701000e+00 9.56695000e+00 3.68575000e+01	N
atom  3.28279000e+00 5.83342000e+00 3.89350000e+01	Si
atom  2.51650000e+00 9.43887000e+00 3.82008000e+01	Si
atom  3.66153000e+00 9.43553000e+00 3.95363000e+01	N
atom  3.21304000e+00 1.11139000e+01 1.80095000e+00	N
atom  3.45708000e+00 1.47300000e+01 2.20617000e+00	Si
atom  2.30378000e+00 1.23038000e+01 9.81314000e-01	Si
atom  2.10589000e+00 1.36374000e+01 2.06319000e+00	N
atom  3.36351000e+00 1.05153000e+01 3.48909000e+00	Si
atom  4.42642000e+00 1.47275000e+01 8.03403000e-01	N
atom  4.12705000e+00 1.86907000e+01 2.59326000e+00	N
atom  2.83420000e+00 1.63033000e+01 2.37789000e+00	N
atom  3.38895000e+00 1.74384000e+01 3.54867000e+00	Si
atom  3.20209000e+00 2.00615000e+01 4.74332000e+00	N
atom  3.64988000e+00 1.34816000e+01 7.83532000e+00	Si
atom  2.97978000e+00 1.10264000e+01 9.18152000e+00	Si
atom  2.55558000e+00 1.43391000e+01 8.96889000e+00	N
atom  3.86425000e+00 1.05389000e+01 6.36415000e+00	Si
atom  3.38056000e+00 1.43953000e+01 6.36571000e+00	N
atom  3.40932000e+00 1.17756000e+01 7.64455000e+00	N
atom  3.91710000e+00 1.85413000e+01 8.53708000e+00	Si
atom  3.65649000e+00 1.68599000e+01 8.82140000e+00	N
atom  2.76749000e+00 1.97462000e+01 8.84981000e+00	N
atom  4.19172000e+00 2.01665000e+01 6.12963000e+00	Si
atom  2.39903000e+00 1.59438000e+01 9.74676000e+00	Si
atom  3.05473000e+00 1.42626000e+01 1.40697000e+01	N
atom  3.33863000e+00 1.32318000e+01 1.15754000e+01	N
atom  3.49243000e+00 1.47913000e+01 1.24303000e+01	Si
atom  2.43909000e+00 1.05920000e+01 1.22267000e+01	N
atom  1.98809000e+00 1.21738000e+01 1.14978000e+01	Si
atom  4.22399000e+00 1.11865000e+01 1.03171000e+01	N
atom  3.52067000e+00 1.73667000e+01 1.37905000e+01	N
atom  2.90345000e+00 1.88933000e+01 1.14408000e+01	N
atom  2.46568000e+00 1.75120000e+01 1.24565000e+01	Si
atom  2.66850000e+00 1.60252000e+01 1.14452000e+01	N
atom  2.03864000e+00 1.15560000e+01 1.47592000e+01	N
atom  2.07160000e+00 1.47862000e+01 1.76353000e+01	N
atom  2.91114000e+00 1.15869000e+01 1.62600000e+01	Si
atom  4.02830000e+00 1.28426000e+01 1.64403000e+01	N
atom  3.34911000e+00 1.64476000e+01 1.97431000e+01	N
atom  3.28053000e+00 1.71913000e+01 1.70610000e+01	N
atom  3.26452000e+00 1.66366000e+01 1.53971000e+01	Si
atom  3.49513000e+00 1.92131000e+01 1.87866000e+01	N
atom  2.28340000e+00 1.85723000e+01 1.76342000e+01	Si
atom  2.25675000e+00 1.97718000e+01 1.63727000e+01	N
atom  3.42285000e+00 1.57881000e+01 1.81053000e+01	Si
atom  3.79310000e+00 2.01389000e+01 1.55848000e+01	Si
atom  2.42868000e+00 1.26606000e+01 2.15658000e+01	Si
atom  4.00790000e+00 1.34714000e+01 2.13596000e+01	N
atom  2.39733000e+00 1.08954000e+01 2.18824000e+01	N
atom  3.99822000e+00 1.50562000e+01 2.07576000e+01	Si
atom  2.85030000e+00 1.46914000e+01 2.45654000e+01	N
atom  4.24453000e+00 1.36570000e+01 2.47652000e+01	Si
atom  2.78600000e+00 1.55918000e+01 2.20052000e+01	N
atom  3.04704000e+00 1.61158000e+01 2.35990000e+01	Si
atom  3.57010000e+00 1.81979000e+01 2.01454000e+01	Si
atom  2.19701000e+00 1.83087000e+01 2.11332000e+01	N
atom  3.38393000e+00 1.21158000e+01 2.48373000e+01	N
atom  4.03110000e+00 1.20921000e+01 2.83054000e+01	Si
atom  2.81793000e+00 1.33888000e+01 2.78982000e+01	N
atom  2.98107000e+00 1.10831000e+01 2.93827000e+01	N
atom  2.66271000e+00 1.50888000e+01 2.82509000e+01	Si
atom  4.31122000e+00 1.07297000e+01 2.54054000e+01	Si
atom  2.76339000e+00 1.80452000e+01 2.83603000e+01	N
atom  3.13719000e+00 1.93000000e+01 2.48996000e+01	N
atom  3.71146000e+00 1.70356000e+01 2.95165000e+01	Si
atom  3.55606000e+00 1.95382000e+01 2.87231000e+01	Si
atom  1.89426000e+00 1.58512000e+01 2.97182000e+01	N
atom  4.27559000e+00 1.57493000e+01 2.83773000e+01	N
atom  3.36195000e+00 1.39673000e+01 3.28894000e+01	N
atom  3.57109000e+00 1.10285000e+01 3.10368000e+01	Si
atom  2.43058000e+00 1.12603000e+01 3.22676000e+01	N
atom  1.99820000e+00 1.28952000e+01 3.25331000e+01	Si
atom  2.45694000e+00 1.51510000e+01 3.12311000e+01	Si
atom  3.12589000e+00 1.55527000e+01 3.37329000e+01	Si
atom  3.98146000e+00 1.60520000e+01 3.10071000e+01	N
atom  1.89767000e+00 1.61039000e+01 3.26772000e+01	N
atom  3.60638000e+00 1.42479000e+01 3.64210000e+01	Si
atom  3.03599000e+00 1.25445000e+01 3.92782000e+01	N
atom  2.23028000e+00 1.30884000e+01 3.64696000e+01	N
atom  4.43948000e+00 1.45451000e+01 3.80624000e+01	N
atom  2.99602000e+00 1.69143000e+01 3.77768000e+01	N
atom  2.76616000e+00 1.98526000e+01 3.58788000e+01	Si
atom  3.08556000e+00 1.96071000e+01 3.92024000e+01	N
atom  2.80940000e+00 1.54706000e+01 3.54251000e+01	N
atom  3.65583000e+00 1.55984000e+01 3.93295000e+01	Si
atom  3.29351000e+00 1.82512000e+01 3.54450000e+01	N
atom  2.41211000e+00 1.70177000e+01 3.61973000e+01	Si
atom  3.87476000e+00 1.81541000e+01 3.85597000e+01	Si
atom  2.30886000e+00 2.06238000e+01 1.93890000e+00	N
atom  2.25819000e+00 2.33300000e+01 3.01322000e+00	N
atom  3.94986000e+00 2.32329000e+01 2.70427000e+00	Si
atom  3.58318000e+00 2.03058000e+01 3.15645000e+00	Si
atom  4.08428000e+00 2.64985000e+01 1.33794000e+00	N
atom  3.92828000e+00 2.80488000e+01 3.87493000e+00	N
atom  3.43787000e+00 2.78302000e+01 2.20975000e+00	Si
atom  2.99413000e+00 2.55461000e+01 4.62399000e+00	N
atom  2.97376000e+00 2.45089000e+01 7.29861000e+00	N
atom  2.16775000e+00 2.09830000e+01 7.77373000e+00	Si
atom  3.67849000e+00 2.15004000e+01 7.13868000e+00	N
atom  4.08163000e+00 2.31867000e+01 7.03204000e+00	Si
atom  2.68020000e+00 2.61712000e+01 7.65658000e+00	Si
atom  3.52717000e+00 2.72482000e+01 6.65211000e+00	N
atom  2.17167000e+00 2.68985000e+01 9.26814000e+00	N
atom  2.92665000e+00 2.72257000e+01 5.06265000e+00	Si
atom  3.44626000e+00 2.28748000e+01 1.27971000e+01	N
atom  3.18229000e+00 2.23153000e+01 1.11843000e+01	Si
atom  3.21108000e+00 2.38053000e+01 1.02571000e+01	N
atom  3.41035000e+00 2.45094000e+01 1.33528000e+01	Si
atom  2.66643000e+00 2.55349000e+01 1.04386000e+01	Si
atom  2.93321000e+00 2.56159000e+01 1.21699000e+01	N
atom  3.79956000e+00 2.92374000e+01 1.18870000e+01	Si
atom  2.29335000e+00 2.71489000e+01 1.26184000e+01	Si