lattice_vector  3.99454613e+01 0.00000000e+00 0.00000000e+00
lattice_vector  2.44595407e-15 3.99454613e+01 0.00000000e+00
lattice_vector  2.44595407e-15 2.44595407e-15 3.99454613e+01
atom  2.83537000e-01 1.40468000e+00 1.11616000e+00	N
atom  3.53556000e+00 6.33510000e-01 3.81375000e+00	N
atom  4.65934000e+00 7.34739000e-01 1.18070000e+00	N
atom  4.61165000e+00 1.46031000e+00 2.74285000e+00	Si
atom  6.19517000e+00 1.12264000e+00 3.60829000e+00	N
atom  8.76325000e+00 1.07494000e+00 2.19919000e+00	N
atom  7.41187000e+00 2.00010000e+00 2.77365000e+00	Si
atom  5.83965000e+00 1.39422000e+00 1.03644000e-01	Si
atom  8.41247000e+00 6.12825000e-01 5.46918000e-01	Si
atom  6.76365000e+00 2.53161000e+00 1.26783000e+00	N
atom  8.96864000e+00 2.35466000e+00 -1.11251000e-01	N
atom  3.38830000e+00 2.11505000e+00 4.82222000e+00	Si
atom  2.13997000e+00 1.17323000e+00 5.82046000e+00	N
atom  3.17785000e-01 2.55136000e+00 7.72267000e+00	N
atom  1.10215000e+00 2.47691000e+00 6.08711000e+00	Si
atom  8.62974000e+00 1.39498000e+00 7.58183000e+00	Si
atom  4.76924000e+00 2.27961000e+00 5.96334000e+00	N
atom  6.13731000e+00 1.35761000e+00 5.48564000e+00	Si
atom  7.64932000e+00 1.73377000e+00 6.18775000e+00	N
atom  8.82635000e+00 2.60830000e+00 5.22261000e+00	Si
atom  1.63743000e+00 1.71754000e+00 1.24336000e+01	N
atom  3.28260000e+00 2.24663000e+00 1.24522000e+01	Si
atom  4.17377000e+00 7.02932000e-01 1.25926000e+01	N
atom  4.01981000e+00 2.50789000e+00 1.09330000e+01	N
atom  8.70299000e+00 4.96522000e-01 1.83149000e+01	N
atom  9.03902000e+00 7.86685000e-01 1.14530000e+01	N
atom  8.89358000e+00 1.78945000e+00 1.39451000e+01	N
atom  7.06722000e+00 1.84076000e+00 1.39557000e+01	Si
atom  4.92779000e+00 1.02924000e+00 1.09509000e+01	Si
atom  8.91883000e+00 2.28664000e+00 1.22498000e+01	Si
atom  6.47699000e+00 1.27117000e+00 1.00966000e+01	N
atom  7.21983000e+00 2.63980000e+00 1.24683000e+01	N
atom  -4.83022000e-01 8.80157000e-01 1.84549000e+01	Si
atom  1.53425000e+00 1.58736000e+00 1.53912000e+01	N
atom  -2.49676000e-01 1.29794000e+00 1.55478000e+01	Si
atom  8.77646000e-01 2.02428000e+00 1.87217000e+01	N
atom  2.58933000e+00 1.70677000e+00 1.84938000e+01	Si
atom  3.84921000e+00 1.62297000e+00 1.96869000e+01	N
atom  5.13864000e+00 3.69591000e-01 1.95774000e+01	Si
atom  7.28874000e+00 1.61494000e+00 1.82116000e+01	Si
atom  8.18129000e+00 2.58072000e+00 1.70162000e+01	N
atom  3.90984000e+00 9.73102000e-01 2.25591000e+01	N
atom  2.92918000e+00 1.24084000e+00 2.11335000e+01	Si
atom  3.63390000e+00 2.36349000e+00 2.37223000e+01	Si
atom  -1.41377000e-01 1.52255000e+00 2.23819000e+01	N
atom  2.20676000e+00 2.14297000e+00 2.46803000e+01	N
atom  8.64322000e+00 1.55160000e+00 2.17909000e+01	N
atom  6.54801000e+00 1.85526000e+00 2.43337000e+01	Si
atom  6.71122000e+00 3.64906000e-01 2.33970000e+01	N
atom  9.16224000e+00 5.73087000e-01 2.77345000e+01	N
atom  -4.28421000e-01 2.01152000e+00 2.94662000e+01	N
atom  3.88938000e+00 1.96900000e+00 2.76937000e+01	N
atom  1.42945000e+00 8.92260000e-01 2.56199000e+01	Si
atom  1.73893000e+00 9.32779000e-01 2.91320000e+01	N
atom  6.60835000e-01 2.17839000e+00 2.67217000e+01	N
atom  3.00920000e+00 5.54124000e-01 2.80251000e+01	Si
atom  8.81548000e-01 2.27341000e+00 2.84480000e+01	Si
atom  6.98430000e+00 7.78645000e-01 2.94179000e+01	N
atom  8.38664000e+00 1.58264000e+00 2.89669000e+01	Si
atom  9.11387000e+00 1.07668000e+00 2.60841000e+01	Si
atom  7.53801000e+00 1.83441000e+00 2.57508000e+01	N
atom  4.88718000e+00 2.16491000e+00 2.48720000e+01	N
atom  1.70801000e+00 1.87136000e-01 2.07255000e+01	N
atom  7.94619000e-01 1.45557000e+00 3.17839000e+01	N
atom  3.33102000e+00 1.90835000e+00 3.25436000e+01	N
atom  4.35786000e-01 7.33882000e-01 3.03451000e+01	Si
atom  4.68103000e+00 8.28363000e-01 3.30838000e+01	Si
atom  9.55844000e+00 1.26189000e+00 3.01780000e+01	N
atom  9.40100000e+00 1.38937000e+00 3.38004000e+01	Si
atom  4.88919000e+00 2.17322000e+00 3.01432000e+01	N
atom  5.78329000e+00 2.25130000e+00 3.27948000e+01	N
atom  5.33772000e+00 4.87391000e-01 3.00388000e+01	Si
atom  3.84019000e-01 2.08379000e+00 3.50427000e+01	Si
atom  3.38860000e+00 1.75299000e+00 3.69744000e+01	N
atom  3.30410000e+00 1.60054000e+00 3.88109000e+01	Si
atom  1.40912000e+00 6.48639000e-01 3.51179000e+01	N
atom  -1.42909000e-01 3.98433000e-01 3.85173000e+01	N
atom  5.43794000e+00 2.25085000e+00 3.52682000e+01	N
atom  4.94013000e+00 2.01667000e+00 3.88054000e+01	N
atom  8.35664000e+00 2.32486000e+00 3.67887000e+01	Si
atom  7.04082000e+00 4.43496000e-01 3.94340000e+01	N
atom  6.94981000e+00 1.38280000e+00 3.69806000e+01	N
atom  5.28678000e+00 2.27197000e+00 3.70059000e+01	Si
atom  6.81942000e+00 1.26751000e+00 3.52205000e+01	Si
atom  8.34339000e+00 2.16326000e+00 3.49664000e+01	N
atom  1.31736000e+00 4.13878000e+00 1.18696000e+00	N
atom  4.14101000e+00 4.35218000e+00 8.95989000e-01	N
atom  2.61474000e+00 4.36743000e+00 1.18456000e-01	Si
atom  4.02814000e+00 2.98916000e+00 3.32981000e+00	N
atom  6.58009000e-01 2.86591000e+00 2.97089000e-01	Si
atom  4.36198000e+00 4.48708000e+00 2.61954000e+00	Si
atom  7.92234000e+00 3.22064000e+00 3.89036000e+00	N
atom  8.02549000e+00 3.62239000e+00 6.54170000e-01	Si
atom  8.68845000e+00 4.68175000e+00 1.86922000e+00	N
atom  7.54351000e+00 4.79855000e+00 3.23253000e+00	Si
atom  -3.22308000e-01 2.70081000e+00 5.00304000e+00	N
atom  2.82391000e+00 3.31864000e+00 8.25827000e+00	N
atom  4.23760000e+00 3.43962000e+00 7.21019000e+00	Si
atom  1.17475000e+00 3.70081000e+00 8.66185000e+00	Si
atom  2.40887000e+00 3.60084000e+00 5.36031000e+00	N
atom  9.20920000e+00 4.06873000e+00 7.93871000e+00	Si
atom  6.70390000e+00 2.91151000e+00 9.42989000e+00	Si
atom  9.20071000e+00 3.95312000e+00 6.20661000e+00	N
atom  5.34374000e+00 3.39046000e+00 8.52131000e+00	N
atom  8.24999000e+00 2.71602000e+00 8.60747000e+00	N
atom  5.07682000e-01 3.86449000e+00 1.32995000e+01	N
atom  1.66731000e+00 3.70176000e+00 1.04608000e+01	N
atom  3.36592000e+00 3.15566000e+00 1.39227000e+01	N
atom  1.70088000e+00 3.20086000e+00 1.44250000e+01	Si
atom  6.82010000e-01 3.05794000e+00 1.17124000e+01	Si
atom  3.28648000e+00 3.70190000e+00 9.95039000e+00	Si
atom  6.86228000e+00 4.30536000e+00 1.21985000e+01	Si
atom  6.88878000e+00 4.36827000e+00 1.04381000e+01	N
atom  4.86277000e+00 3.94683000e+00 1.44706000e+01	Si
atom  5.44374000e+00 4.84147000e+00 1.31255000e+01	N
atom  -3.84370000e-01 3.19834000e+00 1.88843000e+01	Si
atom  -2.14814000e-01 4.59539000e+00 1.78854000e+01	N
atom  3.01920000e+00 4.55211000e+00 1.67593000e+01	Si
atom  -4.33454000e-02 4.37833000e+00 1.62028000e+01	Si
atom  3.39087000e+00 3.13073000e+00 1.76727000e+01	N
atom  1.62168000e+00 4.29177000e+00 1.57358000e+01	N
atom  4.38671000e+00 4.97157000e+00 1.57530000e+01	N
atom  6.18010000e+00 2.79164000e+00 1.87162000e+01	N
atom  7.50473000e+00 3.84256000e+00 1.59969000e+01	Si
atom  4.53835000e+00 3.09950000e+00 1.89628000e+01	Si
atom  6.33671000e+00 3.06302000e+00 1.49689000e+01	N
atom  8.99480000e+00 4.51003000e+00 1.53328000e+01	N
atom  9.17022000e+00 5.05502000e+00 1.85144000e+01	N
atom  3.23035000e+00 4.21440000e+00 2.15444000e+01	Si
atom  4.07195000e+00 3.91111000e+00 2.29934000e+01	N
atom  1.21532000e-02 4.49393000e+00 2.26594000e+01	N
atom  5.64315000e-01 2.98369000e+00 2.17467000e+01	Si
atom  4.10953000e+00 4.36484000e+00 2.00497000e+01	N
atom  2.28514000e+00 2.79758000e+00 2.15991000e+01	N
atom  6.73982000e+00 3.22750000e+00 2.32835000e+01	N
atom  8.05763000e+00 4.05955000e+00 2.09801000e+01	N
atom  8.21696000e+00 3.13941000e+00 2.24330000e+01	Si
atom  5.57937000e+00 4.64340000e+00 2.32869000e+01	Si
atom  1.71008000e+00 3.82618000e+00 2.88549000e+01	N
atom  3.15398000e+00 4.10688000e+00 2.64960000e+01	N
atom  1.69505000e+00 3.37426000e+00 2.58294000e+01	Si
atom  4.26113000e+00 4.64778000e+00 2.89903000e+01	N
atom  9.02051000e-01 4.75994000e+00 2.52360000e+01	N
atom  -4.27007000e-01 4.35736000e+00 2.43243000e+01	Si
atom  7.46753000e+00 3.24029000e+00 2.68032000e+01	Si
atom  4.47252000e+00 2.91415000e+00 2.63086000e+01	Si
atom  8.39356000e+00 3.19181000e+00 2.82468000e+01	N
atom  5.83302000e+00 3.45032000e+00 2.72708000e+01	N
atom  4.87132000e+00 3.05799000e+00 2.86592000e+01	Si
atom  7.98626000e+00 4.54084000e+00 2.57566000e+01	N
atom  1.74223000e+00 3.97163000e+00 3.13764000e+01	N
atom  8.85577000e-01 3.21415000e+00 3.38145000e+01	N
atom  4.37685000e+00 4.43859000e+00 3.44188000e+01	N
atom  9.98118000e-01 4.85972000e+00 3.01079000e+01	Si
atom  4.51927000e+00 2.81468000e+00 3.16650000e+01	Si
atom  1.80309000e+00 2.67736000e+00 3.24631000e+01	Si
atom  4.55360000e+00 4.49801000e+00 3.18043000e+01	N
atom  5.75656000e+00 3.41273000e+00 3.40300000e+01	Si
atom  7.17282000e+00 4.43343000e+00 3.37914000e+01	N
atom  8.68276000e+00 3.72722000e+00 3.40914000e+01	Si
atom  6.56297000e-01 3.00649000e+00 3.64585000e+01	N
atom  2.21497000e+00 3.05775000e+00 3.72630000e+01	Si
atom  3.09829000e+00 4.52142000e+00 3.69783000e+01	N
atom  2.14561000e+00 2.93733000e+00 3.90715000e+01	N
atom  1.09881000e-01 4.65487000e+00 3.63274000e+01	Si
atom  4.48824000e+00 4.83775000e+00 3.61516000e+01	Si
atom  7.03070000e+00 4.58344000e+00 3.79325000e+01	Si
atom  8.44882000e+00 3.96578000e+00 3.71798000e+01	N
atom  5.66574000e+00 3.97923000e+00 3.71129000e+01	N
atom  7.09735000e+00 4.78199000e+00 3.96584000e+01	N
atom  9.57843000e+00 4.98882000e+00 3.48177000e+01	N
atom  3.48375000e+00 5.82900000e+00 3.29988000e+00	N
atom  1.37880000e+00 6.85282000e+00 1.91834000e+00	N
atom  5.67020000e-01 5.33435000e+00 2.16066000e+00	Si
atom  1.96052000e+00 7.27009000e+00 3.46165000e-01	Si
atom  2.33562000e+00 5.23749000e+00 4.51468000e+00	Si
atom  7.40764000e-01 5.25908000e+00 3.83170000e+00	N
atom  5.66785000e+00 6.76695000e+00 3.96142000e-01	N
atom  8.14438000e+00 6.01864000e+00 4.36705000e+00	N
atom  5.69955000e+00 5.02841000e+00 7.73114000e-01	Si
atom  6.01272000e+00 4.90853000e+00 2.51431000e+00	N
atom  2.31002000e+00 6.89424000e+00 8.20139000e+00	N
atom  3.53680000e+00 6.66804000e+00 7.01727000e+00	Si
atom  9.90644000e-01 6.33959000e+00 7.09030000e+00	Si
atom  2.26795000e+00 6.31231000e+00 5.81373000e+00	N
atom  -2.68229000e-01 5.14957000e+00 6.43304000e+00	N
atom  4.44431000e+00 5.23135000e+00 7.11518000e+00	N
atom  3.63705000e-01 5.28664000e+00 8.74040000e+00	N
atom  9.44510000e+00 5.43987000e+00 5.40625000e+00	Si
atom  5.19190000e+00 5.09571000e+00 8.73813000e+00	Si
atom  9.20355000e+00 6.99472000e+00 7.77502000e+00	Si
atom  6.17605000e+00 6.47127000e+00 8.97048000e+00	N
atom  8.57602000e+00 5.54809000e+00 8.50970000e+00	N
atom  3.15508000e+00 6.48640000e+00 1.23690000e+01	N
atom  3.70760000e-01 6.59174000e+00 1.34292000e+01	N
atom  -8.03863000e-02 6.19348000e+00 1.01474000e+01	Si
atom  3.92251000e+00 6.86100000e+00 1.07751000e+01	Si
atom  1.07965000e+00 7.24605000e+00 1.07785000e+01	N
atom  3.96607000e+00 5.29292000e+00 9.96294000e+00	N
atom  7.90695000e+00 6.08954000e+00 1.78179000e+01	Si
atom  -5.48362000e-01 5.24654000e+00 1.29407000e+01	Si
atom  9.47706000e+00 5.96855000e+00 1.17301000e+01	Si
atom  4.83038000e+00 6.42179000e+00 1.29943000e+01	Si
atom  8.97508000e+00 5.68889000e+00 1.41155000e+01	Si
atom  8.44348000e+00 6.97636000e+00 1.07097000e+01	N
atom  5.57033000e+00 7.15456000e+00 1.43554000e+01	N
atom  8.18202000e+00 5.28842000e+00 1.26927000e+01	N
atom  8.22371000e+00 7.11628000e+00 1.46628000e+01	N
atom  5.41419000e+00 7.31295000e+00 1.15068000e+01	N
atom  7.53243000e+00 5.88681000e+00 9.79489000e+00	Si
atom  2.89775000e+00 5.85915000e+00 1.79495000e+01	N
atom  3.29466000e+00 5.85314000e+00 1.97544000e+01	Si
atom  -3.66700000e-02 7.28519000e+00 1.49543000e+01	Si
atom  2.10554000e+00 7.29880000e+00 1.74084000e+01	Si
atom  6.57485000e-01 7.33186000e+00 1.83152000e+01	N
atom  6.94117000e+00 5.41092000e+00 1.65545000e+01	N
atom  5.61406000e+00 6.28692000e+00 1.59540000e+01	Si
atom  6.75039000e+00 6.03107000e+00 1.91715000e+01	N
atom  7.50624000e-01 5.98541000e+00 2.18808000e+01	Si
atom  2.13174000e+00 5.54327000e+00 2.10224000e+01	N
atom  1.35041000e+00 6.87401000e+00 2.32323000e+01	N
atom  4.40198000e+00 6.86961000e+00 2.46150000e+01	Si
atom  -5.18869000e-01 6.86645000e+00 2.10971000e+01	N
atom  4.35010000e+00 7.23044000e+00 2.00530000e+01	N
atom  7.29638000e+00 5.64173000e+00 2.07913000e+01	Si
atom  8.55274000e+00 6.77913000e+00 2.11516000e+01	N
atom  5.98096000e+00 5.71666000e+00 2.19019000e+01	N
atom  8.15007000e+00 7.10201000e+00 2.44284000e+01	N
atom  5.23360000e+00 7.28141000e+00 2.18206000e+01	Si
atom  5.66582000e+00 5.67063000e+00 2.46917000e+01	N
atom  1.26632000e+00 6.53203000e+00 2.49084000e+01	Si
atom  2.03254000e+00 6.41876000e+00 2.81927000e+01	N
atom  2.87223000e+00 6.84372000e+00 2.55119000e+01	N
atom  -2.15617000e-01 7.34063000e+00 2.55813000e+01	N
atom  9.21217000e+00 5.98085000e+00 2.77400000e+01	N
atom  7.19480000e+00 6.08110000e+00 2.54235000e+01	Si
atom  3.96778000e+00 7.17449000e+00 2.29290000e+01	N
atom  2.82203000e+00 4.89729000e+00 2.80284000e+01	Si
atom  1.10707000e+00 6.58934000e+00 3.07418000e+01	N
atom  1.46073000e+00 6.42317000e+00 3.40441000e+01	Si
atom  2.80377000e+00 6.19022000e+00 3.30343000e+01	N
atom  3.90574000e+00 6.88448000e+00 3.04450000e+01	N
atom  4.36353000e+00 5.54346000e+00 3.31118000e+01	Si
atom  5.51787000e-02 5.91119000e+00 3.31122000e+01	N
atom  -2.74109000e-01 6.99446000e+00 3.18377000e+01	Si
atom  2.64251000e+00 7.07288000e+00 3.15706000e+01	Si
atom  6.99282000e+00 6.16372000e+00 3.34288000e+01	Si
atom  8.04012000e+00 6.16590000e+00 3.06528000e+01	Si
atom  5.50130000e+00 6.87940000e+00 3.27740000e+01	N
atom  8.40442000e+00 6.36983000e+00 3.23277000e+01	N
atom  4.93502000e+00 5.41293000e+00 3.03541000e+01	Si
atom  6.61011000e+00 5.39454000e+00 3.02402000e+01	N
atom  2.20104000e+00 5.89926000e+00 3.75811000e+01	Si
atom  1.28886000e+00 5.61171000e+00 3.54796000e+01	N
atom  2.55321000e+00 5.94345000e+00 3.92955000e+01	N
atom  4.99257000e-01 5.41426000e+00 3.77886000e+01	N
atom  4.91498000e+00 6.51981000e+00 3.60319000e+01	N
atom  7.32213000e+00 7.15826000e+00 3.48177000e+01	N
atom  7.22131000e+00 6.62135000e+00 3.95420000e+01	Si
atom  8.81176000e+00 7.36371000e+00 3.96092000e+01	N
atom  7.02422000e+00 6.37202000e+00 3.77852000e+01	N
atom  9.49476000e+00 5.20116000e+00 3.02744000e+01	N
atom  -4.09207000e-01 6.81694000e+00 3.83319000e+01	Si
atom  3.18358000e+00 8.26087000e+00 1.04883000e+00	N
atom  2.42756000e+00 8.59276000e+00 3.60728000e+00	N
atom  7.84759000e-01 8.20654000e+00 2.88518000e+00	Si
atom  -6.22310000e-02 9.29538000e+00 1.21672000e-01	Si
atom  3.38586000e-02 9.54650000e+00 4.34711000e+00	N
atom  7.47931000e-01 9.64252000e+00 1.68087000e+00	N
atom  3.38131000e+00 7.46596000e+00 2.67830000e+00	Si
atom  8.43415000e+00 7.73022000e+00 4.25634000e+00	Si
atom  5.84525000e+00 9.38678000e+00 3.74894000e+00	Si
atom  5.00313000e+00 8.19791000e+00 2.78622000e+00	N
atom  8.73977000e+00 8.04065000e+00 2.51837000e+00	N
atom  4.98164000e+00 8.22553000e+00 9.11312000e-01	Si
atom  5.82023000e+00 9.39679000e+00 5.93846000e-03	N
atom  7.20251000e+00 8.83900000e+00 4.75771000e+00	N
atom  8.85442000e-01 9.28963000e+00 8.98634000e+00	N
atom  1.03317000e-01 7.77811000e+00 6.92429000e+00	N
atom  1.85421000e+00 7.97835000e+00 9.46141000e+00	Si
atom  4.92173000e-01 9.28316000e+00 5.99203000e+00	Si
atom  4.73012000e+00 7.93199000e+00 7.13380000e+00	N
atom  6.25836000e+00 8.11549000e+00 8.18820000e+00	Si
atom  4.67142000e+00 9.60581000e+00 6.80178000e+00	Si
atom  6.92397000e+00 9.01987000e+00 9.65538000e+00	N
atom  7.67733000e+00 9.33797000e+00 6.34113000e+00	Si
atom  7.71487000e+00 7.78668000e+00 7.15287000e+00	N
atom  8.49847000e+00 9.73540000e+00 2.35631000e+00	Si
atom  2.05490000e+00 8.78186000e+00 1.32310000e+01	N
atom  3.32825000e+00 8.42518000e+00 1.01400000e+01	N
atom  6.16408000e+00 8.92447000e+00 1.12890000e+01	Si
atom  6.95734000e+00 8.18718000e+00 1.41509000e+01	Si
atom  7.10856000e+00 9.13399000e+00 1.27513000e+01	N
atom  8.69424000e+00 8.57399000e+00 1.00563000e+01	Si
atom  2.15908000e+00 8.87182000e+00 1.49727000e+01	Si
atom  3.14043000e+00 8.64137000e+00 1.80482000e+01	N
atom  3.64542000e+00 9.61688000e+00 1.54498000e+01	N
atom  1.57946000e+00 7.45853000e+00 1.57497000e+01	N
atom  4.50630000e+00 9.06029000e+00 1.68996000e+01	Si
atom  8.05397000e+00 9.05425000e+00 1.87336000e+01	Si
atom  8.47823000e+00 7.70988000e+00 1.76873000e+01	N
atom  8.66015000e+00 8.19013000e+00 1.59609000e+01	Si
atom  7.29828000e+00 9.21314000e+00 1.55306000e+01	N
atom  5.28830000e+00 7.51075000e+00 1.71172000e+01	N
atom  6.41564000e+00 8.90576000e+00 1.91192000e+01	N
atom  1.64921000e+00 7.27752000e+00 1.24212000e+01	Si
atom  5.71320000e+00 7.35468000e+00 1.88579000e+01	Si
atom  3.44394000e+00 8.69723000e+00 1.97916000e+01	Si
atom  2.25804000e+00 8.71497000e+00 2.11234000e+01	N
atom  2.47648000e+00 8.10260000e+00 2.27367000e+01	Si
atom  2.69202000e+00 9.50736000e+00 2.37932000e+01	N
atom  -2.62314000e-01 9.43954000e+00 1.98859000e+01	N
atom  7.87418000e+00 7.68062000e+00 2.97465000e+01	N
atom  6.98334000e+00 7.17694000e+00 2.68917000e+01	N
atom  6.56363000e+00 8.35518000e+00 2.19032000e+01	N
atom  8.22083000e+00 8.41835000e+00 2.14437000e+01	Si
atom  8.62101000e+00 8.73543000e+00 2.42270000e+01	Si
atom  8.67654000e+00 9.54180000e+00 2.02358000e+01	N
atom  9.37059000e+00 9.08921000e+00 2.26335000e+01	N
atom  8.34107000e+00 7.42043000e+00 2.80421000e+01	Si
atom  2.89743000e+00 7.60233000e+00 2.70782000e+01	Si
atom  1.46844000e+00 8.69713000e+00 2.72991000e+01	N
atom  -2.10990000e-01 8.21422000e+00 2.71248000e+01	Si
atom  1.08598000e+00 7.55930000e+00 2.92349000e+01	Si
atom  4.54226000e+00 7.67760000e+00 2.76991000e+01	N
atom  4.92696000e+00 8.37587000e+00 2.51697000e+01	N
atom  5.80303000e+00 8.39633000e+00 2.67748000e+01	Si
atom  4.44608000e+00 8.20201000e+00 2.94583000e+01	Si
atom  9.27241000e+00 8.81716000e+00 2.77506000e+01	N
atom  3.25293000e+00 8.66402000e+00 3.22204000e+01	N
atom  2.54311000e+00 9.08332000e+00 3.37204000e+01	Si
atom  1.29736000e+00 8.10797000e+00 3.44732000e+01	N
atom  1.09837000e+00 9.24093000e+00 2.99947000e+01	N
atom  7.34782000e+00 9.20895000e+00 3.03488000e+01	Si
atom  5.00032000e+00 8.47602000e+00 3.21952000e+01	Si
atom  5.67984000e+00 8.79212000e+00 3.05614000e+01	N
atom  8.09347000e+00 9.46506000e+00 3.19376000e+01	N
atom  3.85751000e+00 8.96005000e+00 3.48330000e+01	N
atom  1.05803000e+00 8.13645000e+00 3.61827000e+01	Si
atom  3.96731000e+00 8.00415000e+00 3.62216000e+01	Si
atom  6.88285000e-01 7.87836000e+00 3.93539000e+01	N
atom  2.49019000e+00 7.54665000e+00 3.69869000e+01	N
atom  5.38547000e+00 8.52507000e+00 3.71075000e+01	N
atom  8.12847000e+00 8.52481000e+00 3.67195000e+01	N
atom  8.53062000e+00 8.34553000e+00 3.50200000e+01	Si
atom  9.29132000e+00 7.83055000e+00 3.79383000e+01	Si
atom  6.52438000e+00 7.34588000e+00 3.64307000e+01	Si
atom  3.57701000e+00 1.11231000e+01 1.39345000e+00	N
atom  2.43496000e+00 1.13864000e+01 3.75110000e+00	N
atom  -7.36537000e-02 1.07336000e+01 2.92409000e+00	Si
atom  2.89080000e+00 9.89912000e+00 4.58057000e+00	Si
atom  2.38284000e+00 9.79485000e+00 1.10139000e+00	Si
atom  3.69573000e+00 1.21274000e+01 2.79539000e+00	Si
atom  8.16332000e+00 1.14867000e+01 8.96287000e+00	N
atom  6.77274000e+00 1.02408000e+01 2.56228000e+00	N
atom  8.60181000e+00 1.02663000e+01 6.63433000e-01	N
atom  6.57580000e+00 1.18497000e+01 2.22869000e+00	Si
atom  7.08909000e+00 1.05605000e+01 3.24257000e-02	Si
atom  9.00047000e+00 1.04076000e+01 6.51257000e+00	N
atom  2.09398000e+00 9.91526000e+00 6.10763000e+00	N
atom  2.53754000e+00 1.11055000e+01 7.35111000e+00	Si
atom  3.82407000e+00 1.03144000e+01 8.13263000e+00	N
atom  1.28409000e+00 1.18408000e+01 8.35671000e+00	N
atom  -1.99447000e-01 1.18349000e+01 7.27589000e+00	Si
atom  1.00364000e+00 1.08085000e+01 9.71323000e+00	Si
atom  6.35305000e+00 9.86078000e+00 7.32768000e+00	N
atom  6.64531000e+00 1.06100000e+01 8.89233000e+00	Si
atom  6.45490000e+00 1.21135000e+01 5.13713000e-01	N
atom  4.60269000e+00 9.93648000e+00 5.03384000e+00	N
atom  2.32697000e+00 1.08749000e+01 1.08227000e+01	N
atom  1.82823000e+00 1.04335000e+01 1.26078000e+01	Si
atom  1.59935000e-01 1.07057000e+01 1.28935000e+01	N
atom  2.60544000e+00 1.15663000e+01 1.37513000e+01	N
atom  3.72290000e+00 1.00778000e+01 9.98673000e+00	Si
atom  8.21092000e+00 1.04321000e+01 1.23923000e+01	Si
atom  5.11062000e+00 1.03646000e+01 1.10371000e+01	N
atom  9.28407000e+00 1.05235000e+01 1.37536000e+01	N
atom  5.88488000e+00 1.19610000e+01 1.13797000e+01	Si
atom  7.40801000e+00 1.19957000e+01 1.22085000e+01	N
atom  9.27826000e+00 9.87298000e+00 1.10290000e+01	N
atom  9.60818000e-01 1.00582000e+01 1.54584000e+01	N
atom  3.59177000e+00 1.12851000e+01 1.51886000e+01	Si
atom  1.95958000e-02 1.16785000e+01 1.74766000e+01	N
atom  1.07961000e+00 1.16011000e+01 1.61905000e+01	Si
atom  5.83591000e+00 1.05915000e+01 1.90158000e+01	Si
atom  7.56780000e+00 1.19371000e+01 1.53800000e+01	N
atom  5.42183000e+00 1.04397000e+01 1.72947000e+01	N
atom  8.05778000e+00 1.04666000e+01 1.76969000e+01	N
atom  6.93822000e+00 1.06620000e+01 1.64138000e+01	Si
atom  1.34741000e+00 1.05986000e+01 2.37530000e+01	Si
atom  1.10495000e+00 9.94628000e+00 2.08623000e+01	Si
atom  3.44704000e+00 1.17147000e+01 2.00267000e+01	Si
atom  4.38025000e-01 9.98308000e+00 2.24764000e+01	N
atom  1.79266000e+00 1.12182000e+01 1.99459000e+01	N
atom  4.32308000e+00 1.02343000e+01 1.98955000e+01	N
atom  8.86300000e+00 1.18968000e+01 2.18121000e+01	N
atom  5.04259000e+00 1.11121000e+01 2.43032000e+01	N
atom  5.78382000e+00 1.01611000e+01 2.69327000e+01	N
atom  7.52171000e+00 9.87171000e+00 2.47444000e+01	N
atom  4.01221000e+00 9.88499000e+00 2.49845000e+01	Si
atom  3.30415000e+00 1.05018000e+01 2.64239000e+01	N
atom  1.45820000e+00 1.12501000e+01 2.83076000e+01	N
atom  1.60365000e+00 1.03361000e+01 2.67945000e+01	Si
atom  6.25789000e-01 1.05362000e+01 2.54536000e+01	N
atom  2.24953000e+00 1.04093000e+01 2.95598000e+01	Si
atom  4.34403000e+00 1.07053000e+01 2.77764000e+01	Si
atom  9.26239000e+00 1.15739000e+01 2.72316000e+01	N
atom  6.41023000e+00 1.09504000e+01 2.53854000e+01	Si
atom  7.49888000e+00 1.05813000e+01 2.92798000e+01	N
atom  9.09699000e+00 1.03434000e+01 2.84697000e+01	Si
atom  4.83679000e+00 1.19931000e+01 2.88384000e+01	N
atom  3.61910000e+00 9.63655000e+00 2.89249000e+01	N
atom  1.73302000e+00 1.05737000e+01 3.35056000e+01	N
atom  1.32435000e-01 1.16154000e+01 3.13624000e+01	N
atom  2.77054000e+00 1.15824000e+01 3.07094000e+01	N
atom  1.71911000e+00 1.16553000e+01 3.20668000e+01	Si
atom  -2.43032000e-01 9.92019000e+00 3.09105000e+01	Si
atom  7.28643000e+00 1.03806000e+01 3.33145000e+01	Si
atom  5.67388000e+00 9.89271000e+00 3.31519000e+01	N
atom  8.09629000e+00 9.97112000e+00 3.47823000e+01	N
atom  4.85770000e-01 1.03964000e+01 3.47957000e+01	Si
atom  1.22818000e+00 1.06422000e+01 3.79586000e+01	Si
atom  2.21538000e+00 1.03655000e+01 3.93581000e+01	N
atom  3.60538000e+00 1.16561000e+01 3.50902000e+01	N
atom  3.47191000e+00 1.15488000e+01 3.95532000e+01	Si
atom  1.24668000e+00 9.81574000e+00 3.64068000e+01	N
atom  4.40388000e+00 1.11814000e+01 3.81657000e+01	N
atom  -3.28352000e-01 1.04385000e+01 3.88042000e+01	N
atom  8.86874000e+00 1.17748000e+01 3.66177000e+01	N
atom  4.81761000e+00 1.04078000e+01 3.46151000e+01	Si
atom  4.56847000e+00 1.19359000e+01 3.66296000e+01	Si
atom  7.63045000e+00 1.04458000e+01 3.65080000e+01	Si
atom  7.14645000e+00 1.05055000e+01 3.82287000e+01	N
atom  5.92507000e+00 1.10594000e+01 3.59032000e+01	N
atom  5.54367000e+00 9.79480000e+00 3.82361000e+01	Si
atom  7.33202000e+00 1.21204000e+01 3.32312000e+01	N
atom  3.41078000e+00 1.37755000e+01 2.26248000e+00	N
atom  1.77969000e+00 1.40896000e+01 4.27024000e+00	N
atom  -1.96193000e-01 1.31938000e+01 5.44730000e-02	N
atom  3.63705000e+00 1.42316000e+01 6.42593000e-01	Si
atom  -3.59557000e-01 1.24358000e+01 3.06714000e+00	N
atom  5.81895000e+00 1.36804000e+01 4.25658000e+00	Si
atom  8.03934000e+00 1.28287000e+01 2.69322000e+00	N
atom  5.35130000e+00 1.23299000e+01 3.31930000e+00	N
atom  7.56100000e+00 1.30835000e+01 9.25324000e+00	Si
atom  7.77487000e+00 1.44395000e+01 2.30689000e+00	Si
atom  4.87423000e+00 1.37295000e+01 9.26382000e+00	Si
atom  1.83841000e+00 1.25234000e+01 4.96507000e+00	Si
atom  2.69338000e-01 1.24210000e+01 5.71337000e+00	N
atom  3.65889000e+00 1.39330000e+01 6.57405000e+00	Si
atom  1.82780000e+00 1.35252000e+01 8.88639000e+00	Si
atom  2.96747000e+00 1.23614000e+01 6.23968000e+00	N
atom  3.30840000e+00 1.31979000e+01 9.69119000e+00	N
atom  4.36753000e+00 1.43009000e+01 4.99648000e+00	N
atom  7.15361000e+00 1.39000000e+01 5.31662000e+00	N
atom  6.00628000e+00 1.24116000e+01 9.69246000e+00	N
atom  5.06622000e+00 1.38003000e+01 7.52419000e+00	N
atom  7.82025000e+00 1.40674000e+01 7.87679000e+00	N
atom  1.90376000e+00 1.31960000e+01 1.37244000e+01	Si
atom  1.63814000e+00 1.32045000e+01 1.19497000e+01	N
atom  3.09132000e+00 1.25027000e+01 1.12518000e+01	Si
atom  3.19703000e+00 1.41756000e+01 1.42699000e+01	N
atom  3.30154000e-01 1.44052000e+01 1.15207000e+01	Si
atom  4.61843000e+00 1.29010000e+01 1.20222000e+01	N
atom  4.74316000e+00 1.35147000e+01 1.36806000e+01	Si
atom  8.46982000e+00 1.34072000e+01 1.18537000e+01	Si
atom  7.75010000e+00 1.42553000e+01 1.05051000e+01	N
atom  4.92639000e+00 1.23207000e+01 1.49092000e+01	N
atom  9.32914000e+00 1.28735000e+01 1.80032000e+01	N
atom  6.98342000e-01 1.28374000e+01 1.50389000e+01	N
atom  1.48098000e+00 1.37523000e+01 1.81937000e+01	N
atom  3.02520000e+00 1.34097000e+01 1.76155000e+01	Si
atom  4.07351000e+00 1.27968000e+01 1.88860000e+01	N
atom  7.51021000e-01 1.23101000e+01 1.89776000e+01	Si
atom  6.31799000e+00 1.31721000e+01 1.54923000e+01	Si
atom  5.71730000e+00 1.32607000e+01 1.87365000e+01	Si
atom  6.60540000e+00 1.33050000e+01 1.71679000e+01	N
atom  8.15694000e+00 1.39339000e+01 1.73983000e+01	Si
atom  2.73595000e+00 1.20350000e+01 1.65103000e+01	N
atom  9.12575000e+00 1.19220000e+01 1.46774000e+01	Si
atom  6.47194000e+00 1.20368000e+01 1.97544000e+01	N
atom  6.86279000e-01 1.43181000e+01 9.75927000e+00	N
atom  1.03725000e+00 1.38138000e+01 2.35756000e+01	Si
atom  4.02795000e+00 1.37379000e+01 2.35345000e+01	N
atom  3.25932000e+00 1.39273000e+01 2.19983000e+01	Si
atom  3.88094000e+00 1.23844000e+01 2.16023000e+01	N
atom  1.69049000e+00 1.22330000e+01 2.36723000e+01	N
atom  -4.36049000e-01 1.33093000e+01 2.90197000e+01	N
atom  7.41952000e+00 1.26338000e+01 2.12176000e+01	Si
atom  7.26368000e+00 1.35895000e+01 2.39360000e+01	Si
atom  6.46406000e+00 1.27373000e+01 2.26661000e+01	N
atom  8.85208000e+00 1.42493000e+01 2.36316000e+01	N
atom  4.83388000e+00 1.22469000e+01 2.30268000e+01	Si
atom  7.85427000e+00 1.42660000e+01 2.10275000e+01	N
atom  1.02718000e+00 1.34201000e+01 2.64279000e+01	N
atom  1.04251000e+00 1.28965000e+01 2.81531000e+01	Si
atom  2.36753000e+00 1.37092000e+01 2.89466000e+01	N
atom  7.25026000e+00 1.24987000e+01 2.52737000e+01	N
atom  8.17579000e+00 1.27903000e+01 2.67034000e+01	Si
atom  7.15165000e+00 1.31855000e+01 2.80517000e+01	N
atom  6.55933000e+00 1.19998000e+01 2.91277000e+01	Si
atom  8.80014000e+00 1.44371000e+01 2.67189000e+01	N
atom  2.20406000e+00 1.31737000e+01 3.29005000e+01	N
atom  4.31478000e+00 1.39718000e+01 3.10272000e+01	N
atom  3.43579000e+00 1.42425000e+01 3.24784000e+01	Si
atom  2.13300000e+00 1.24729000e+01 3.46031000e+01	Si
atom  3.70659000e+00 1.28214000e+01 2.98021000e+01	Si
atom  4.71903000e+00 1.39390000e+01 3.36656000e+01	N
atom  6.45850000e+00 1.36362000e+01 3.37632000e+01	Si
atom  6.76026000e+00 1.29172000e+01 3.06333000e+01	N
atom  7.99513000e+00 1.29161000e+01 3.18538000e+01	Si
atom  6.44936000e+00 1.42328000e+01 3.67422000e+01	Si
atom  1.16228000e+00 1.36345000e+01 3.90192000e+01	Si
atom  8.70985000e-01 1.24313000e+01 3.77747000e+01	N
atom  2.39997000e+00 1.40483000e+01 3.54527000e+01	N
atom  -1.39331000e-01 1.29533000e+01 3.64297000e+01	Si
atom  2.71198000e+00 1.31392000e+01 3.96197000e+01	N
atom  4.11045000e+00 1.43798000e+01 3.51660000e+01	Si
atom  4.86928000e+00 1.36579000e+01 3.65704000e+01	N
atom  6.68636000e+00 1.36128000e+01 3.96121000e+01	Si
atom  8.87797000e+00 1.33218000e+01 3.73863000e+01	Si
atom  7.17964000e+00 1.42928000e+01 3.51614000e+01	N
atom  7.28695000e+00 1.35182000e+01 3.80526000e+01	N
atom  4.04272000e-01 1.20749000e+01 3.50398000e+01	N
atom  4.78188000e-01 1.51515000e+01 3.76312000e+00	Si
atom  3.09123000e+00 1.59023000e+01 4.67358000e-01	N
atom  3.83492000e+00 1.63045000e+01 3.22316000e+00	N
atom  3.25997000e+00 1.47695000e+01 3.69009000e+00	Si
atom  -3.45626000e-01 1.49173000e+01 2.25491000e+00	N
atom  6.17506000e+00 1.48514000e+01 2.94220000e+00	N
atom  5.51299000e+00 1.64739000e+01 3.03710000e+00	Si
atom  8.98949000e+00 1.52364000e+01 3.32966000e+00	N
atom  5.24990000e+00 1.46414000e+01 -6.43842000e-02	N
atom  7.94029000e+00 1.44879000e+01 5.76024000e-01	N
atom  9.49777000e+00 1.49128000e+01 -1.21863000e-01	Si
atom  2.40022000e+00 1.45117000e+01 7.54582000e+00	N
atom  2.19382000e+00 1.61165000e+01 7.44029000e+00	Si
atom  9.37019000e-01 1.66997000e+01 6.35666000e+00	N
atom  9.35625000e+00 1.53548000e+01 6.11189000e+00	N
atom  6.25843000e+00 1.61410000e+01 6.67331000e+00	N
atom  4.10342000e+00 1.68371000e+01 9.65196000e+00	Si
atom  6.49947000e+00 1.45238000e+01 6.75802000e+00	Si
atom  8.73411000e+00 1.42786000e+01 4.84388000e+00	Si
atom  1.10934000e+00 1.65283000e+01 1.36287000e+01	Si
atom  6.24122000e-01 1.48319000e+01 1.34729000e+01	N
atom  5.98461000e+00 1.48715000e+01 1.92002000e+01	N
atom  6.20843000e+00 1.43807000e+01 1.42271000e+01	N
atom  8.69403000e+00 1.47662000e+01 1.28898000e+01	N
atom  7.20039000e+00 1.55666000e+01 1.35373000e+01	Si
atom  6.44623000e+00 1.62696000e+01 1.21157000e+01	N
atom  6.74158000e+00 1.57023000e+01 1.05577000e+01	Si
atom  5.19061000e+00 1.53063000e+01 9.82758000e+00	N
atom  3.87974000e+00 1.47243000e+01 1.69518000e+01	N
atom  3.16377000e+00 1.56581000e+01 1.53069000e+01	Si
atom  1.64729000e+00 1.57971000e+01 1.61290000e+01	N
atom  5.90227000e-01 1.50053000e+01 1.73049000e+01	Si
atom  4.10121000e-02 1.67002000e+01 1.77801000e+01	N