lattice_vector  3.99079812e+01 0.00000000e+00 0.00000000e+00
lattice_vector  2.44365907e-15 3.99079812e+01 0.00000000e+00
lattice_vector  2.44365907e-15 2.44365907e-15 3.99079812e+01
atom  2.73699000e-01 3.83192000e+00 4.04585000e-01	Si
atom  1.31761000e-01 2.41379000e+00 3.44954000e+00	N
atom  1.64178000e+00 2.95984000e+00 9.33580000e-01	N
atom  1.71643000e+00 2.48479000e+00 2.62299000e+00	Si
atom  9.41786000e-01 5.54378000e+00 3.51980000e-01	N
atom  9.45374000e-01 8.65391000e+00 3.22305000e+00	N
atom  8.88850000e-01 9.61064000e+00 6.19745000e-01	Si
atom  -1.83727000e-02 8.14797000e+00 8.31912000e-01	N
atom  -2.63947000e-01 6.71661000e+00 -1.03955000e-01	Si
atom  -3.76076000e-01 3.09019000e+00 4.91507000e+00	Si
atom  -2.55303000e-01 2.36441000e+00 9.46297000e+00	Si
atom  9.14755000e-01 4.07527000e+00 5.56135000e+00	N
atom  9.63716000e-01 5.06277000e+00 8.82554000e+00	Si
atom  1.21072000e+00 3.32494000e+00 9.31538000e+00	N
atom  -1.25448000e-01 5.34560000e+00 6.09829000e+00	Si
atom  5.43996000e-01 6.92108000e+00 6.06522000e+00	N
atom  -3.01698000e-01 8.83435000e+00 9.63147000e+00	Si
atom  7.12759000e-01 9.64583000e+00 6.77727000e+00	N
atom  -3.48710000e-01 8.28949000e+00 6.63778000e+00	Si
atom  1.42222000e+00 9.05640000e+00 9.49490000e+00	N
atom  1.20560000e+00 2.97468000e+00 1.28582000e+01	N
atom  7.54619000e-02 8.40578000e-01 1.02075000e+01	N
atom  8.24330000e-01 5.05388000e-01 1.30030000e+01	N
atom  1.05488000e+00 8.75082000e-01 1.47138000e+01	Si
atom  -4.74875000e-01 2.39723000e+00 1.31910000e+01	Si
atom  5.09424000e-01 6.02244000e+00 1.42273000e+01	Si
atom  3.28985000e-01 6.94264000e+00 1.15267000e+01	Si
atom  6.72589000e-01 6.11643000e+00 1.01085000e+01	N
atom  -3.00449000e-01 9.10103000e+00 1.47093000e+01	Si
atom  1.88546000e+00 7.68098000e+00 1.18769000e+01	N
atom  -4.02352000e-01 5.99726000e+00 1.27768000e+01	N
atom  -1.25649000e-01 4.91942000e+00 1.54117000e+01	N
atom  6.52475000e-02 3.00897000e+00 1.73480000e+01	N
atom  4.49676000e-02 9.48368000e-01 1.95153000e+01	N
atom  7.72660000e-01 2.36621000e+00 1.88083000e+01	Si
atom  7.43773000e-01 4.55595000e+00 1.68763000e+01	Si
atom  6.40659000e-01 7.62788000e+00 1.47155000e+01	N
atom  1.31191000e+00 9.92167000e+00 1.50619000e+01	N
atom  2.75170000e-01 5.67986000e+00 1.81896000e+01	N
atom  1.09539000e+00 5.35125000e+00 1.96155000e+01	Si
atom  6.66648000e-02 1.02912000e+01 1.92895000e+01	N
atom  1.01808000e+00 1.68891000e+00 2.20626000e+01	N
atom  1.01669000e+00 3.29043000e+00 2.15569000e+01	Si
atom  1.23053000e-01 2.16124000e+00 2.36573000e+01	Si
atom  -2.09552000e-01 3.74550000e+00 2.27892000e+01	N
atom  1.07200000e+00 4.90609000e-01 2.08219000e+01	Si
atom  6.59129000e-01 3.64913000e+00 1.99291000e+01	N
atom  1.83032000e+00 2.70345000e+00 2.43200000e+01	N
atom  1.05926000e+00 7.25961000e+00 2.20569000e+01	Si
atom  2.74354000e-01 6.26728000e+00 2.08461000e+01	N
atom  3.72668000e-01 6.60247000e+00 2.35896000e+01	N
atom  6.66132000e-01 8.91079000e+00 2.21586000e+01	N
atom  1.73123000e+00 9.88336000e+00 2.31904000e+01	Si
atom  1.11562000e+00 9.38359000e+00 2.47347000e+01	N
atom  1.17612000e+00 2.84056000e+00 2.59534000e+01	Si
atom  1.25362000e+00 4.47447000e+00 2.65701000e+01	N
atom  5.79609000e-01 1.95780000e+00 2.90147000e+01	N
atom  6.58059000e-01 4.94262000e+00 2.80926000e+01	Si
atom  1.89814000e+00 4.22842000e+00 2.92685000e+01	N
atom  -4.48254000e-01 2.69780000e+00 2.52311000e+01	N
atom  1.43036000e-01 3.07936000e-01 2.84607000e+01	Si
atom  -4.65643000e-01 2.98572000e+00 2.98711000e+01	Si
atom  -3.08099000e-01 7.92805000e+00 2.74712000e+01	Si
atom  1.11022000e+00 9.08827000e+00 2.76252000e+01	N
atom  1.54724000e+00 9.51952000e+00 2.92765000e+01	Si
atom  6.85740000e-01 7.64267000e+00 2.49002000e+01	Si
atom  8.66649000e-01 1.01998000e+01 2.62869000e+01	Si
atom  5.68276000e-01 6.66901000e+00 2.84051000e+01	N
atom  8.79942000e-01 3.26462000e+00 3.27982000e+01	Si
atom  1.07914000e+00 1.81323000e+00 3.37074000e+01	N
atom  2.19308000e-01 3.95346000e+00 3.12299000e+01	N
atom  6.51602000e-01 6.50447000e-01 3.15880000e+01	N
atom  1.76639000e-01 4.49780000e-01 3.31723000e+01	Si
atom  -3.77430000e-01 4.18505000e+00 3.35882000e+01	N
atom  1.90956000e+00 4.84989000e+00 3.09390000e+01	Si
atom  9.76966000e-02 7.14860000e+00 3.00099000e+01	Si
atom  1.30220000e+00 6.52766000e+00 3.12325000e+01	N
atom  4.82855000e-01 8.85133000e+00 3.36543000e+01	N
atom  8.96471000e-01 7.19371000e+00 3.28898000e+01	Si
atom  2.01626000e-01 8.92391000e+00 3.01460000e+01	N
atom  1.89351000e+00 6.36624000e+00 3.40005000e+01	N
atom  1.30016000e+00 3.79958000e-01 3.85420000e+01	N
atom  8.79170000e-01 3.77528000e+00 3.74950000e+01	Si
atom  1.21065000e+00 2.35264000e+00 3.65832000e+01	N
atom  6.73132000e-01 6.90764000e-01 3.69876000e+01	Si
atom  5.62777000e-01 4.98095000e+00 3.63998000e+01	N
atom  -2.01590000e-01 3.26138000e+00 3.87246000e+01	N
atom  4.95200000e-01 9.64938000e+00 3.62304000e+01	N
atom  2.96196000e-02 7.24949000e+00 3.80245000e+01	N
atom  7.98412000e-01 8.81114000e+00 3.77120000e+01	Si
atom  4.56203000e-01 9.98037000e+00 3.89417000e+01	N
atom  8.90106000e-01 1.33419000e+01 3.48872000e+00	N
atom  7.60589000e-01 1.10365000e+01 1.72801000e+00	N
atom  3.27380000e-01 1.26928000e+01 1.99121000e+00	Si
atom  1.72566000e+00 1.34518000e+01 1.15095000e+00	N
atom  -3.98697000e-01 1.08386000e+01 4.35618000e+00	N
atom  9.97956000e-01 1.03433000e+01 3.29624000e+00	Si
atom  6.54268000e-01 1.66379000e+01 3.72844000e-01	N
atom  1.40031000e+00 1.93491000e+01 3.59470000e+00	Si
atom  5.93770000e-01 1.65250000e+01 3.90233000e+00	Si
atom  7.71256000e-01 1.80805000e+01 4.53377000e+00	N
atom  1.37246000e+00 1.88913000e+01 1.94354000e+00	N
atom  1.74977000e+00 1.60554000e+01 2.75161000e+00	N
atom  1.85670000e+00 1.73074000e+01 1.48320000e+00	Si
atom  3.81780000e-01 1.37450000e+01 5.05037000e+00	Si
atom  4.27881000e-01 1.29854000e+01 7.64520000e+00	Si
atom  1.13284000e+00 1.22248000e+01 9.10697000e+00	N
atom  9.23134000e-01 1.08319000e+01 5.58028000e+00	Si
atom  9.52947000e-01 1.45786000e+01 7.88668000e+00	N
atom  9.57250000e-01 1.24831000e+01 6.10544000e+00	N
atom  9.40907000e-01 1.51240000e+01 9.50525000e+00	Si
atom  1.71534000e+00 1.56637000e+01 6.66927000e+00	Si
atom  4.62586000e-01 1.83750000e+01 6.31311000e+00	Si
atom  7.69739000e-01 1.54335000e+01 5.25398000e+00	N
atom  1.40780000e+00 1.72586000e+01 7.13031000e+00	N
atom  3.92766000e-01 2.00937000e+01 6.26359000e+00	N
atom  6.20925000e-01 1.22004000e+01 1.39552000e+01	N
atom  2.40594000e-01 1.12056000e+01 1.25274000e+01	Si
atom  1.27023000e+00 1.37890000e+01 1.34855000e+01	Si
atom  -2.74848000e-02 1.47280000e+01 1.28170000e+01	N
atom  1.66419000e+00 1.06244000e+01 1.17726000e+01	N
atom  9.11817000e-01 1.92655000e+01 1.35779000e+01	N
atom  9.34816000e-01 1.67200000e+01 1.02460000e+01	N
atom  1.87542000e+00 2.02656000e+01 1.01943000e+01	Si
atom  3.76744000e-01 1.30307000e+01 1.94004000e+01	N
atom  2.51426000e-01 1.46551000e+01 1.72246000e+01	N
atom  1.76370000e-01 1.30308000e+01 1.76755000e+01	Si
atom  1.39312000e+00 1.21160000e+01 1.69858000e+01	N
atom  1.38921000e+00 1.15866000e+01 1.53585000e+01	Si
atom  5.10577000e-01 1.66908000e+01 1.48257000e+01	N
atom  1.60080000e+00 1.82360000e+01 1.93263000e+01	N
atom  4.49812000e-01 1.84741000e+01 1.51003000e+01	Si
atom  1.10776000e+00 1.90486000e+01 1.66101000e+01	N
atom  1.17692000e+00 1.55726000e+01 1.59993000e+01	Si
atom  1.06034000e+00 1.77151000e+01 1.77076000e+01	Si
atom  1.75287000e+00 1.54524000e+01 1.97553000e+01	N
atom  8.73126000e-01 1.27075000e+01 2.28840000e+01	Si
atom  8.88840000e-01 1.41373000e+01 2.20250000e+01	N
atom  4.85322000e-01 1.44872000e+01 2.04093000e+01	Si
atom  1.16895000e-01 1.15372000e+01 2.18079000e+01	N
atom  7.84893000e-01 1.15454000e+01 2.02212000e+01	Si
atom  -3.07081000e-01 1.28087000e+01 2.41493000e+01	N
atom  1.36501000e+00 1.54664000e+01 2.30486000e+01	Si
atom  7.59709000e-02 1.55610000e+01 2.41537000e+01	N
atom  1.04578000e+00 1.95562000e+01 2.30933000e+01	N
atom  1.55351000e+00 1.69614000e+01 2.21337000e+01	N
atom  1.91586000e+00 1.81010000e+01 2.33849000e+01	Si
atom  6.13206000e-01 1.37859000e+01 2.85894000e+01	N
atom  8.80934000e-01 1.86007000e+01 2.95722000e+01	N
atom  1.51495000e+00 1.55448000e+01 2.66095000e+01	N
atom  3.17087000e-01 1.64364000e+01 2.57040000e+01	Si
atom  -4.21323000e-01 1.64068000e+01 2.83906000e+01	N
atom  7.86338000e-01 1.68696000e+01 2.95631000e+01	Si
atom  1.68116000e+00 1.73671000e+01 2.48862000e+01	N
atom  3.13140000e-01 1.46148000e+01 3.33680000e+01	N
atom  1.12687000e+00 1.34678000e+01 3.43603000e+01	Si
atom  1.36075000e+00 1.32237000e+01 3.11930000e+01	N
atom  1.16719000e+00 1.48042000e+01 3.18511000e+01	Si
atom  7.30889000e-01 1.16972000e+01 3.44211000e+01	N
atom  1.26066000e-01 1.28901000e+01 3.00652000e+01	Si
atom  7.11816000e-01 1.05003000e+01 3.31206000e+01	Si
atom  2.03135000e+00 1.06127000e+01 3.19747000e+01	N
atom  2.56777000e-01 1.61875000e+01 3.11592000e+01	N
atom  8.36562000e-01 1.86947000e+01 3.41674000e+01	Si
atom  1.15175000e+00 1.98630000e+01 3.28793000e+01	N
atom  -1.81123000e-01 1.74725000e+01 3.35863000e+01	N
atom  1.92552000e-02 1.45149000e+01 3.81797000e+01	N
atom  1.24143000e+00 1.35333000e+01 3.74722000e+01	Si
atom  1.20056000e+00 1.11460000e+01 3.60092000e+01	Si
atom  2.84764000e-01 1.21110000e+01 3.72128000e+01	N
atom  1.41153000e+00 1.41950000e+01 3.58831000e+01	N
atom  5.58693000e-01 1.89469000e+01 3.79344000e+01	N
atom  -3.92983000e-01 2.01876000e+01 3.86769000e+01	Si
atom  1.83321000e+00 1.59301000e+01 3.60126000e+01	Si
atom  3.19431000e-01 1.66545000e+01 3.57581000e+01	N
atom  6.09254000e-01 1.61526000e+01 3.86282000e+01	Si
atom  -1.17949000e-01 1.93803000e+01 3.55320000e+01	N
atom  2.02294000e+00 1.62003000e+01 3.77269000e+01	N
atom  6.14127000e-01 2.35973000e+01 3.09457000e+00	N
atom  1.45749000e+00 2.21158000e+01 3.20024000e+00	Si
atom  4.22536000e-01 2.07991000e+01 3.51292000e+00	N
atom  -5.38429000e-02 2.08097000e+01 3.29891000e-01	N
atom  1.51968000e+00 2.03458000e+01 9.73453000e-01	Si
atom  9.75102000e-01 2.51853000e+01 3.60441000e+00	Si
atom  1.13452000e+00 2.59782000e+01 2.05431000e+00	N
atom  1.17957000e+00 2.77540000e+01 1.83056000e+00	Si
atom  9.12455000e-01 2.08864000e+01 8.79685000e+00	N
atom  2.72323000e-01 2.39230000e+01 7.97872000e+00	Si
atom  1.31716000e+00 2.13013000e+01 7.12378000e+00	Si
atom  1.24682000e+00 2.29520000e+01 6.90266000e+00	N
atom  -2.51826000e-01 2.34089000e+01 9.57741000e+00	N
atom  1.33139000e+00 2.51761000e+01 8.32077000e+00	N
atom  1.63845000e+00 2.89132000e+01 7.23312000e+00	Si
atom  4.14019000e-01 2.66413000e+01 8.50103000e+00	Si
atom  1.64760000e-01 2.97691000e+01 6.87821000e+00	N
atom  1.28414000e+00 2.80831000e+01 8.68258000e+00	N
atom  8.80344000e-01 2.20217000e+01 1.36609000e+01	N
atom  1.83777000e-01 2.48360000e+01 1.21327000e+01	N
atom  7.40125000e-01 2.07950000e+01 1.12917000e+01	N
atom  1.38873000e-01 2.06722000e+01 1.28995000e+01	Si
atom  -7.27578000e-03 2.17230000e+01 1.00163000e+01	Si
atom  -4.52859000e-01 2.52291000e+01 1.38139000e+01	Si
atom  4.40180000e-01 2.66531000e+01 1.43779000e+01	N
atom  9.05908000e-01 2.94013000e+01 1.21267000e+01	Si
atom  1.10880000e+00 3.01637000e+01 1.05897000e+01	N
atom  -3.73218000e-01 2.05933000e+01 1.81830000e+01	N
atom  -1.84246000e-01 2.40820000e+01 1.51240000e+01	N
atom  3.25343000e-01 2.24013000e+01 1.51938000e+01	Si
atom  1.20380000e+00 2.05622000e+01 1.74164000e+01	Si
atom  1.52754000e+00 2.18187000e+01 1.63452000e+01	N
atom  1.02026000e+00 2.89305000e+01 1.58125000e+01	N
atom  3.14664000e-01 2.60875000e+01 1.69571000e+01	N
atom  4.15672000e-02 2.74838000e+01 1.58884000e+01	Si
atom  3.28300000e-01 2.09930000e+01 2.09488000e+01	N
atom  2.45994000e-01 2.50665000e+01 2.17401000e+01	Si
atom  -1.39173000e-01 2.25490000e+01 2.20950000e+01	Si
atom  1.52156000e+00 2.20839000e+01 2.27616000e+01	N
atom  1.71550000e+00 2.06309000e+01 2.19073000e+01	Si
atom  1.73624000e+00 2.15028000e+01 2.44647000e+01	Si
atom  -3.14464000e-01 2.41049000e+01 2.31440000e+01	N
atom  -2.11502000e-01 2.36500000e+01 2.07785000e+01	N
atom  1.98941000e+00 2.48578000e+01 2.19599000e+01	N
atom  9.11725000e-01 2.74213000e+01 2.39881000e+01	Si
atom  3.40162000e-02 2.67512000e+01 2.26589000e+01	N
atom  3.84707000e-01 2.74803000e+01 2.10017000e+01	Si
atom  1.65152000e+00 3.01550000e+01 2.44029000e+01	Si
atom  8.99868000e-01 3.00423000e+01 1.99208000e+01	Si
atom  -2.81101000e-01 2.87987000e+01 2.00031000e+01	N
atom  -3.18531000e-01 2.60846000e+01 2.03371000e+01	N
atom  8.90531000e-02 2.11217000e+01 2.48787000e+01	N
atom  3.70995000e-01 2.22325000e+01 2.89540000e+01	Si
atom  1.05568000e+00 2.15953000e+01 2.74550000e+01	N
atom  -3.43615000e-01 2.19579000e+01 2.63418000e+01	Si
atom  1.81138000e+00 2.29415000e+01 2.96040000e+01	N
atom  -1.34108000e-01 2.60054000e+01 2.71123000e+01	N
atom  1.57021000e+00 2.61841000e+01 2.68556000e+01	Si
atom  1.79149000e+00 2.99747000e+01 2.60462000e+01	N
atom  1.51182000e+00 2.95842000e+01 2.90848000e+01	N
atom  -3.15760000e-01 2.81469000e+01 2.51505000e+01	N
atom  -2.04884000e-01 2.94149000e+01 2.88547000e+01	Si
atom  6.45871000e-01 2.67040000e+01 2.97794000e+01	N
atom  4.95718000e-01 2.13072000e+01 3.32264000e+01	Si
atom  9.37764000e-01 2.26130000e+01 3.20625000e+01	N
atom  1.30972000e+00 2.43676000e+01 3.26132000e+01	Si
atom  1.63837000e+00 2.45225000e+01 3.43608000e+01	N
atom  -4.60785000e-01 2.11062000e+01 3.00713000e+01	N
atom  -9.24396000e-02 2.52954000e+01 3.23769000e+01	N
atom  4.85223000e-01 2.81988000e+01 3.37520000e+01	Si
atom  1.26137000e+00 2.75506000e+01 3.23523000e+01	N
atom  2.38470000e-02 2.67065000e+01 3.13930000e+01	Si
atom  -2.64342000e-02 2.98102000e+01 3.33698000e+01	N
atom  7.07539000e-01 2.18241000e+01 3.48932000e+01	N
atom  4.44868000e-01 2.38103000e+01 3.69284000e+01	N
atom  4.82384000e-01 2.35511000e+01 3.52038000e+01	Si
atom  5.99442000e-01 2.08091000e+01 3.63132000e+01	Si
atom  1.67032000e+00 2.80098000e+01 3.50641000e+01	N
atom  -3.41951000e-02 2.68149000e+01 3.70010000e+01	N
atom  -1.27304000e-01 2.58619000e+01 3.84917000e+01	Si
atom  1.45104000e+00 2.87254000e+01 3.76310000e+01	N
atom  1.65516000e+00 2.73344000e+01 3.66643000e+01	Si
atom  1.51470000e+00 2.54203000e+01 3.90721000e+01	N
atom  -2.36120000e-01 2.84682000e+01 3.80203000e+01	Si
atom  7.78824000e-01 3.42942000e+01 3.22564000e+00	Si
atom  8.79410000e-01 3.15443000e+01 7.83331000e-01	N
atom  7.72609000e-01 3.15840000e+01 4.45221000e+00	Si
atom  -7.31060000e-02 3.37720000e+01 1.70680000e+00	N
atom  -1.29869000e-01 3.07675000e+01 3.27253000e+00	N
atom  6.04913000e-02 3.43216000e+01 7.58876000e-02	Si
atom  1.57339000e+00 3.28088000e+01 3.59952000e+00	N
atom  -3.22619000e-01 3.46975000e+01 4.50771000e+00	N
atom  4.50469000e-02 3.91792000e+01 1.14349000e+00	N
atom  2.46339000e-01 3.84587000e+01 2.71339000e+00	Si
atom  -1.03006000e-01 3.95325000e+01 4.04014000e+00	N
atom  1.69971000e+00 3.97644000e+01 4.24670000e+00	Si
atom  1.25381000e+00 3.91772000e+01 -3.67161000e-02	Si
atom  6.56047000e-02 3.22212000e+01 5.89624000e+00	N
atom  6.80916000e-01 3.22256000e+01 8.57157000e+00	N
atom  1.09651000e+00 3.45855000e+01 6.86066000e+00	N
atom  -2.01239000e-01 3.13799000e+01 7.35900000e+00	Si
atom  -2.38454000e-01 3.39148000e+01 6.10520000e+00	Si
atom  5.62608000e-01 3.92199000e+01 9.59821000e+00	Si
atom  -9.06598000e-02 3.87766000e+01 5.67783000e+00	Si
atom  1.60709000e+00 3.92728000e+01 5.92891000e+00	N
atom  5.71255000e-02 3.70124000e+01 5.57613000e+00	N
atom  1.53603000e+00 3.62702000e+01 6.31569000e+00	Si
atom  1.08757000e+00 3.28953000e+01 1.12642000e+01	N
atom  1.13070000e+00 3.45027000e+01 1.06042000e+01	Si
atom  3.82479000e-01 3.17791000e+01 1.01663000e+01	Si
atom  1.31253000e+00 3.05565000e+01 1.33350000e+01	N
atom  -4.01508000e-01 3.50025000e+01 9.89199000e+00	N
atom  2.66557000e-01 3.84588000e+01 1.12461000e+01	N
atom  -3.92688000e-01 3.99999000e+01 1.18418000e+01	Si
atom  -2.80386000e-01 3.67805000e+01 1.03180000e+01	Si
atom  1.57421000e+00 3.63613000e+01 1.06578000e+01	N
atom  -3.82845000e-01 3.68318000e+01 1.45896000e+01	N
atom  1.07182000e+00 3.77506000e+01 1.47275000e+01	Si
atom  2.57515000e-01 3.15540000e+01 1.93731000e+01	N
atom  9.29017000e-01 3.43341000e+01 1.89189000e+01	N
atom  4.94647000e-01 3.19446000e+01 1.55064000e+01	N
atom  1.23705000e+00 3.45857000e+01 1.56132000e+01	N
atom  1.48388000e+00 3.27078000e+01 1.94657000e+01	Si
atom  1.84648000e+00 3.30323000e+01 1.52725000e+01	Si
atom  5.24694000e-01 3.03367000e+01 1.48893000e+01	Si
atom  1.14158000e+00 3.78749000e+01 1.78988000e+01	Si
atom  1.67127000e+00 3.71085000e+01 1.63598000e+01	N
atom  -3.68412000e-01 3.53497000e+01 1.55061000e+01	Si
atom  1.47207000e+00 3.69902000e+01 1.93736000e+01	N
atom  -4.33781000e-01 3.85895000e+01 1.79127000e+01	N
atom  1.57963000e+00 3.93043000e+01 1.54270000e+01	N
atom  5.27425000e-01 3.31726000e+01 2.30388000e+01	N
atom  9.54893000e-01 3.48398000e+01 2.31273000e+01	Si
atom  -3.45931000e-02 3.05331000e+01 2.39728000e+01	N
atom  1.61492000e+00 3.19667000e+01 2.22547000e+01	Si
atom  1.27889000e+00 3.04006000e+01 2.15235000e+01	N
atom  4.00304000e-01 3.88580000e+01 2.14377000e+01	N
atom  3.30295000e-01 3.61508000e+01 2.20925000e+01	N
atom  1.29648000e+00 3.73302000e+01 2.11025000e+01	Si
atom  1.11471000e+00 3.91221000e+01 2.42318000e+01	N
atom  -1.43273000e-01 3.92869000e+01 2.30357000e+01	Si
atom  8.58839000e-01 3.12556000e+01 2.68137000e+01	Si
atom  8.93343000e-01 3.46976000e+01 2.73607000e+01	N
atom  9.93712000e-02 3.24992000e+01 2.57707000e+01	N
atom  -2.06485000e-01 3.42464000e+01 2.60355000e+01	Si
atom  7.58153000e-01 3.51055000e+01 2.48886000e+01	N
atom  1.76016000e+00 3.35626000e+01 2.84647000e+01	Si
atom  2.03844000e+00 3.19479000e+01 2.78289000e+01	N
atom  4.67914000e-01 4.01130000e+01 2.68288000e+01	N
atom  9.43103000e-01 3.89653000e+01 2.94343000e+01	N
atom  7.30017000e-01 3.87447000e+01 2.59229000e+01	Si
atom  1.55301000e+00 3.73634000e+01 2.64878000e+01	N
atom  1.80792000e+00 3.56457000e+01 2.61765000e+01	Si
atom  -4.61873000e-01 3.53371000e+01 2.83319000e+01	Si
atom  5.83406000e-01 3.14445000e+01 3.38127000e+01	Si
atom  1.56945000e+00 3.19020000e+01 3.25155000e+01	N
atom  1.00609000e+00 3.29923000e+01 2.99777000e+01	N
atom  -3.60781000e-01 3.45154000e+01 3.20171000e+01	N
atom  1.10512000e+00 3.52909000e+01 3.13967000e+01	Si
atom  1.57673000e+00 3.64236000e+01 3.27354000e+01	N
atom  8.55271000e-01 3.87322000e+01 3.35016000e+01	N
atom  -9.95038000e-02 3.72010000e+01 3.32001000e+01	Si
atom  7.23974000e-01 3.58878000e+01 2.98668000e+01	N
atom  9.66127000e-02 3.75273000e+01 2.98181000e+01	Si
atom  1.61766000e+00 3.15538000e+01 3.52121000e+01	N
atom  7.40750000e-01 3.23652000e+01 3.64706000e+01	Si
atom  3.77793000e-01 3.39919000e+01 3.61907000e+01	N
atom  1.45182000e+00 3.46896000e+01 3.91641000e+01	N
atom  1.83502000e-02 3.14691000e+01 3.92254000e+01	Si
atom  1.28577000e+00 3.16411000e+01 3.79641000e+01	N
atom  -2.94164000e-03 3.87934000e+01 3.66257000e+01	N
atom  2.11855000e-01 3.68554000e+01 3.49650000e+01	N
atom  1.83714000e+00 4.01063000e+01 3.56524000e+01	N
atom  1.13724000e+00 3.75701000e+01 3.92965000e+01	N
atom  4.63062000e-01 3.58109000e+01 3.63185000e+01	Si
atom  1.13779000e+00 3.84230000e+01 3.52831000e+01	Si
atom  2.89066000e+00 3.65793000e+00 3.39240000e+00	N
atom  3.85643000e+00 4.37571000e+00 8.27424000e-01	N
atom  2.25390000e+00 9.15899000e-01 2.91977000e+00	N
atom  4.30082000e+00 4.03504000e+00 2.48973000e+00	Si
atom  2.98249000e+00 3.21623000e+00 -2.01107000e-01	Si
atom  2.62849000e+00 5.59826000e+00 6.45269000e-01	Si
atom  2.40809000e+00 8.10564000e+00 2.45171000e+00	Si
atom  2.50627000e+00 9.12739000e+00 1.07150000e+00	N
atom  3.88620000e+00 6.48644000e+00 3.68062000e+00	Si
atom  3.64627000e+00 8.16518000e+00 3.65327000e+00	N
atom  2.71250000e+00 6.42407000e+00 2.17429000e+00	N
atom  3.83573000e+00 9.87520000e+00 4.10087000e+00	Si
atom  3.87225000e+00 1.01535000e+01 8.79814000e-01	Si
atom  2.55768000e+00 4.13337000e+00 5.04866000e+00	Si
atom  3.78580000e+00 4.34904000e+00 7.69924000e+00	Si
atom  3.63493000e+00 3.40592000e+00 6.19139000e+00	N
atom  4.05240000e+00 3.38429000e+00 9.08442000e+00	N
atom  2.32085000e+00 5.34110000e+00 7.71905000e+00	N
atom  3.47453000e+00 1.02911000e+01 7.90869000e+00	N
atom  4.25391000e+00 8.97086000e+00 7.02830000e+00	Si
atom  2.21979000e+00 6.58263000e+00 6.35438000e+00	Si
atom  2.01636000e+00 9.26020000e+00 7.92536000e+00	Si
atom  3.03566000e+00 5.86050000e+00 5.07271000e+00	N
atom  2.83716000e+00 8.03252000e+00 6.96492000e+00	N
atom  2.88158000e+00 1.63793000e+00 1.08806000e+01	N
atom  3.08633000e+00 4.46614000e+00 1.13265000e+01	N
atom  2.52168000e+00 4.13003000e+00 1.29779000e+01	Si
atom  3.38105000e+00 7.29330000e-01 1.34603000e+01	N
atom  2.69552000e+00 3.20532000e+00 1.01751000e+01	Si
atom  2.17157000e+00 1.51576000e+00 1.24462000e+01	Si
atom  3.92226000e+00 3.45216000e+00 1.37726000e+01	N
atom  3.97251000e+00 1.95083000e+00 1.46938000e+01	Si
atom  2.99194000e+00 6.90585000e+00 1.30954000e+01	Si
atom  3.43955000e+00 8.14778000e+00 1.42027000e+01	N
atom  2.21741000e+00 9.15353000e+00 1.10155000e+01	Si
atom  3.97523000e+00 9.28451000e+00 1.09117000e+01	N
atom  2.10906000e+00 5.57334000e+00 1.37348000e+01	N
atom  2.21446000e+00 2.01677000e+00 1.53537000e+01	N
atom  2.33941000e+00 1.91125000e+00 1.83619000e+01	N
atom  2.77274000e+00 2.67264000e+00 1.68786000e+01	Si
atom  2.42233000e+00 4.36117000e+00 1.70174000e+01	N
atom  3.76202000e+00 4.93148000e+00 1.81530000e+01	Si
atom  3.08473000e+00 4.84901000e-01 1.88940000e+01	Si
atom  3.91508000e+00 8.04173000e+00 1.80129000e+01	Si
atom  2.77262000e+00 5.39081000e+00 1.95748000e+01	N
atom  2.67418000e+00 8.14958000e+00 1.68947000e+01	N
atom  2.15690000e+00 8.39464000e+00 1.52917000e+01	Si
atom  3.55032000e+00 8.89256000e+00 1.95191000e+01	N
atom  2.96820000e+00 3.88689000e+00 2.36162000e+01	Si
atom  2.37310000e+00 4.32167000e+00 2.19615000e+01	N
atom  3.52535000e+00 5.09275000e+00 2.46845000e+01	N
atom  3.27346000e+00 5.54979000e+00 2.12061000e+01	Si
atom  2.67703000e+00 7.12015000e+00 2.17045000e+01	N
atom  3.39860000e+00 9.57193000e+00 2.25425000e+01	N
atom  3.64996000e+00 8.49683000e+00 2.11836000e+01	Si
atom  3.64042000e+00 1.00266000e+00 2.65841000e+01	Si
atom  2.39587000e+00 2.12667000e+00 2.70519000e+01	N
atom  2.30010000e+00 2.53404000e+00 2.87996000e+01	Si
atom  3.81020000e+00 4.78613000e+00 2.90530000e+01	Si
atom  4.00251000e+00 3.08948000e+00 2.90307000e+01	N
atom  2.86010000e+00 9.90790000e-01 2.97673000e+01	N
atom  2.40250000e+00 7.54407000e+00 2.76855000e+01	Si
atom  1.86960000e+00 7.08861000e+00 2.60048000e+01	N
atom  4.04357000e+00 8.22618000e+00 2.72944000e+01	N
atom  2.65764000e+00 8.10052000e+00 2.94163000e+01	N
atom  3.96590000e+00 1.00407000e+01 2.51088000e+01	N
atom  3.35833000e+00 5.82322000e+00 2.76696000e+01	N
atom  2.61130000e+00 5.49983000e+00 2.61132000e+01	Si
atom  3.69786000e+00 4.12713000e+00 3.34039000e+01	Si
atom  2.41040000e+00 3.96821000e+00 3.23487000e+01	N
atom  2.75145000e+00 3.78735000e+00 3.49069000e+01	N
atom  3.61626000e+00 5.74679000e+00 3.05076000e+01	N
atom  3.18716000e+00 8.06328000e+00 3.23196000e+01	N
atom  3.47302000e+00 7.02624000e+00 3.37610000e+01	Si
atom  3.37245000e+00 9.79039000e+00 3.24623000e+01	Si
atom  2.80421000e+00 7.27590000e+00 3.08864000e+01	Si
atom  3.91553000e+00 1.46817000e+00 3.51224000e+01	N
atom  3.71617000e+00 1.88012000e+00 3.89756000e+01	N
atom  2.24671000e+00 4.14827000e+00 3.84486000e+01	N
atom  2.16389000e+00 2.02651000e+00 3.51312000e+01	Si
atom  3.47112000e+00 5.30523000e+00 3.79935000e+01	Si
atom  2.04027000e+00 5.34811000e+00 3.54480000e+01	Si
atom  3.14306000e+00 2.86826000e-01 3.87817000e+01	Si
atom  3.48325000e+00 6.45625000e+00 3.93261000e+01	N
atom  3.12218000e+00 6.05432000e+00 3.65183000e+01	N
atom  2.51350000e+00 8.70987000e+00 3.76948000e+01	N
atom  3.86717000e+00 8.02238000e+00 3.51162000e+01	N
atom  3.52625000e+00 7.72284000e+00 3.67823000e+01	Si
atom  3.70920000e+00 1.43193000e+01 3.29927000e+00	N
atom  3.02153000e+00 1.29868000e+01 1.10723000e-01	Si
atom  2.11571000e+00 1.43745000e+01 2.71089000e+00	Si
atom  2.23250000e+00 1.05908000e+01 4.46155000e+00	N
atom  4.25337000e+00 1.51832000e+01 4.72778000e+00	Si
atom  4.32847000e+00 1.06271000e+01 2.60455000e+00	N
atom  3.57570000e+00 1.74120000e+01 1.21867000e+00	N
atom  3.04793000e+00 1.96040000e+01 4.07743000e+00	N
atom  4.34527000e+00 1.68061000e+01 4.06231000e+00	N
atom  3.70777000e+00 1.30474000e+01 7.88318000e+00	N
atom  2.59221000e+00 1.30828000e+01 9.26357000e+00	Si
atom  4.31078000e+00 1.15561000e+01 8.62394000e+00	Si
atom  3.38417000e+00 1.53011000e+01 6.32089000e+00	N
atom  3.99187000e+00 1.70220000e+01 9.86039000e+00	N
atom  3.35567000e+00 1.45471000e+01 1.15151000e+01	Si
atom  2.63837000e+00 1.33205000e+01 1.24567000e+01	N
atom  3.00166000e+00 1.17587000e+01 1.17689000e+01	Si
atom  3.66823000e+00 1.20948000e+01 1.02005000e+01	N
atom  2.41769000e+00 1.44955000e+01 1.01121000e+01	N
atom  4.18958000e+00 1.11307000e+01 1.28538000e+01	N
atom  2.43471000e+00 1.91753000e+01 1.27527000e+01	Si
atom  2.53390000e+00 1.70136000e+01 1.08293000e+01	Si
atom  3.32755000e+00 1.81199000e+01 1.38206000e+01	N
atom  2.89082000e+00 1.60640000e+01 1.22361000e+01	N
atom  2.59688000e+00 1.88093000e+01 1.09968000e+01	N
atom  3.93968000e+00 1.65585000e+01 1.36209000e+01	Si
atom  4.15726000e+00 1.87779000e+01 9.95049000e+00	Si
atom  1.96585000e+00 1.44378000e+01 1.49981000e+01	N
atom  3.17077000e+00 1.22039000e+01 1.70000000e+01	Si
atom  3.82403000e+00 1.37725000e+01 1.70622000e+01	N
atom  3.71819000e+00 1.39331000e+01 1.52881000e+01	Si
atom  3.82707000e+00 1.05771000e+01 1.95040000e+01	Si
atom  3.07167000e+00 1.21222000e+01 1.52347000e+01	N
atom  4.18641000e+00 1.11232000e+01 1.78426000e+01	N
atom  4.19893000e+00 1.56437000e+01 1.51365000e+01	N
atom  2.83354000e+00 1.94652000e+01 1.94011000e+01	Si
atom  3.93340000e+00 1.65333000e+01 1.67031000e+01	Si
atom  2.21187000e+00 1.66066000e+01 1.69408000e+01	N
atom  3.48137000e+00 1.13469000e+01 2.19576000e+01	Si
atom  2.52105000e+00 1.12869000e+01 2.04640000e+01	N
atom  2.14731000e+00 1.15973000e+01 2.33541000e+01	N
atom  4.15184000e+00 1.39383000e+01 2.36310000e+01	Si
atom  2.86656000e+00 1.51308000e+01 2.38628000e+01	N
atom  4.22558000e+00 1.28478000e+01 2.22311000e+01	N
atom  3.63130000e+00 1.84966000e+01 2.34033000e+01	N
atom  2.14197000e+00 1.70075000e+01 2.04674000e+01	Si
atom  3.86775000e+00 1.71769000e+01 2.07152000e+01	N
atom  2.96969000e+00 2.00037000e+01 2.10397000e+01	N
atom  4.19899000e+00 1.98988000e+01 2.44037000e+01	Si
atom  2.92483000e+00 1.14705000e+01 2.49026000e+01	Si
atom  2.77814000e+00 1.18230000e+01 2.79085000e+01	Si
atom  3.82621000e+00 1.29460000e+01 2.50706000e+01	N
atom  3.20657000e+00 1.35470000e+01 2.77245000e+01	N
atom  2.18112000e+00 1.11087000e+01 2.93610000e+01	N
atom  2.05398000e+00 1.47722000e+01 2.80546000e+01	Si
atom  2.01225000e+00 1.14366000e+01 2.63979000e+01	N
atom  2.76656000e+00 1.60610000e+01 2.53485000e+01	Si
atom  2.33167000e+00 1.60204000e+01 2.92325000e+01	N
atom  4.16665000e+00 1.56379000e+01 2.62336000e+01	N
atom  3.12598000e+00 1.97615000e+01 2.82269000e+01	N
atom  2.82498000e+00 1.32676000e+01 3.38821000e+01	N
atom  3.55791000e+00 1.39184000e+01 3.25328000e+01	Si
atom  2.49326000e+00 1.19051000e+01 3.08539000e+01	Si
atom  4.00076000e+00 1.26327000e+01 3.14128000e+01	N
atom  3.72899000e+00 1.04902000e+01 3.39986000e+01	N
atom  2.78998000e+00 1.53604000e+01 3.19522000e+01	N
atom  2.77156000e+00 1.91391000e+01 3.23633000e+01	Si
atom  2.98963000e+00 1.80262000e+01 3.10765000e+01	N
atom  3.33632000e+00 1.63997000e+01 3.06848000e+01	Si
atom  2.58268000e+00 1.81877000e+01 3.38864000e+01	N
atom  4.06185000e+00 1.78114000e+01 3.47074000e+01	Si
atom  4.20697000e+00 2.00438000e+01 3.28597000e+01	N
atom  2.49338000e+00 1.91501000e+01 2.97077000e+01	Si
atom  3.59450000e+00 1.20419000e+01 3.48528000e+01	Si
atom  2.65221000e+00 1.33565000e+01 3.83577000e+01	N
atom  3.65472000e+00 1.18841000e+01 3.80166000e+01	Si
atom  2.97293000e+00 1.15354000e+01 3.63894000e+01	N
atom  3.23132000e+00 1.13303000e+01 3.95929000e+01	N
atom  3.48815000e+00 1.65018000e+01 3.57071000e+01	N
atom  3.68163000e+00 1.66246000e+01 3.75296000e+01	Si
atom  3.65280000e+00 1.81571000e+01 3.81662000e+01	N
atom  2.32134000e+00 1.92876000e+01 3.80718000e+01	Si
atom  2.65621000e+00 1.98430000e+01 3.96440000e+01	N
atom  3.00850000e+00 2.29372000e+01 6.50783000e-01	Si
atom  3.32908000e+00 2.46006000e+01 1.22941000e+00	N
atom  2.49455000e+00 2.23663000e+01 4.52642000e+00	N
atom  2.18239000e+00 2.18348000e+01 1.67324000e+00	N
atom  2.24502000e+00 2.57937000e+01 7.29212000e-01	Si
atom  2.81004000e+00 2.75066000e+01 8.07379000e-01	N
atom  3.75726000e+00 2.80510000e+01 2.42603000e+00	Si
atom  2.73979000e+00 2.90308000e+01 4.53415000e+00	Si
atom  2.13742000e+00 2.83935000e+01 3.08918000e+00	N
atom  3.93720000e+00 2.86308000e+01 -6.20301000e-02	Si
atom  3.41273000e+00 2.10375000e+01 5.10101000e+00	Si
atom  2.96211000e+00 2.09599000e+01 6.79077000e+00	N
atom  2.38445000e+00 2.35963000e+01 5.82187000e+00	Si
atom  3.79601000e+00 2.36190000e+01 9.28602000e+00	N
atom  4.05886000e+00 2.39266000e+01 6.30357000e+00	N
atom  4.01767000e+00 2.08638000e+01 8.14411000e+00	Si
atom  2.87794000e+00 2.51220000e+01 9.10618000e+00	Si
atom  1.92492000e+00 2.50991000e+01 4.98814000e+00	N
atom  2.77170000e+00 3.00852000e+01 8.02181000e+00	N
atom  3.71374000e+00 2.62365000e+01 8.06690000e+00	N
atom  2.18964000e+00 2.93555000e+01 9.53257000e+00	Si
atom  2.69165000e+00 2.82126000e+01 6.04004000e+00	N
atom  4.03605000e+00 2.72498000e+01 6.61278000e+00	Si
atom  2.58811000e+00 2.30901000e+01 1.16692000e+01	N
atom  2.52542000e+00 2.21312000e+01 1.31351000e+01	Si
atom  3.39392000e+00 2.06320000e+01 1.28254000e+01	N
atom  3.81195000e+00 2.24413000e+01 1.06248000e+01	Si
atom  3.37266000e+00 2.28364000e+01 1.45424000e+01	N
atom  3.40590000e+00 2.45370000e+01 1.47523000e+01	Si
atom  1.92189000e+00 2.46637000e+01 1.19617000e+01	Si
atom  3.41061000e+00 2.10008000e+01 9.76236000e+00	N