lattice_vector  3.99194631e+01 0.00000000e+00 0.00000000e+00
lattice_vector  2.44436213e-15 3.99194631e+01 0.00000000e+00
lattice_vector  2.44436213e-15 2.44436213e-15 3.99194631e+01
atom  8.03247000e-01 2.78622000e+00 3.24342000e+00	N
atom  8.12059000e-01 1.07381000e+00 3.99642000e+00	Si
atom  7.72093000e-01 1.95589000e+00 1.33239000e+00	Si
atom  1.29697000e+00 3.49335000e+00 5.86648000e-01	N
atom  1.63570000e+00 7.14196000e-01 2.28031000e+00	N
atom  1.54648000e+00 5.30989000e+00 2.72318000e+00	N
atom  4.37337000e-01 1.00115000e+00 -1.78903000e-01	N
atom  -7.32573000e-02 6.89964000e+00 6.47618000e-01	Si
atom  1.50052000e+00 6.43291000e+00 1.58258000e-01	N
atom  7.73060000e-01 6.67060000e+00 3.48292000e+00	Si
atom  -2.49659000e-01 7.31266000e+00 2.27033000e+00	N
atom  1.61947000e+00 8.09961000e-01 7.93597000e+00	N
atom  -1.67846000e-01 4.65693000e+00 6.87734000e+00	N
atom  3.25546000e-01 1.78910000e+00 5.65114000e+00	N
atom  2.43371000e-01 7.55721000e-01 6.97949000e+00	Si
atom  1.46427000e-01 3.42047000e+00 5.71577000e+00	Si
atom  1.77802000e+00 4.15576000e+00 5.45245000e+00	N
atom  1.11128000e+00 5.60715000e+00 6.16231000e+00	Si
atom  6.68978000e-02 6.32781000e+00 4.97302000e+00	N
atom  -4.16525000e-01 9.64248000e+00 7.00849000e+00	Si
atom  2.71302000e-01 8.30543000e+00 7.82935000e+00	N
atom  1.01834000e+00 3.33901000e+00 1.13033000e+01	Si
atom  3.81713000e-01 2.07852000e+00 1.41633000e+01	N
atom  1.28523000e+00 4.81294000e+00 1.03339000e+01	N
atom  1.92075000e+00 5.01098000e+00 1.35997000e+01	Si
atom  1.94658000e+00 2.06736000e+00 1.05297000e+01	N
atom  1.57909000e+00 3.88990000e-01 1.12616000e+01	Si
atom  -1.21890000e-01 3.31090000e-01 1.08976000e+01	N
atom  4.52309000e-01 5.43331000e+00 1.45481000e+01	N
atom  4.07343000e-01 7.78956000e+00 1.04089000e+01	N
atom  6.19662000e-01 6.14087000e+00 1.12049000e+01	Si
atom  1.52962000e+00 9.09441000e+00 1.03493000e+01	Si
atom  8.20571000e-02 9.50041000e+00 1.45547000e+01	N
atom  1.89365000e+00 6.28277000e+00 1.24181000e+01	N
atom  1.43304000e+00 1.37037000e+00 1.86754000e+01	Si
atom  1.95299000e-01 2.34678000e+00 1.80126000e+01	N
atom  1.31304000e+00 3.74696000e+00 1.81890000e+01	Si
atom  1.75624000e+00 4.56223000e+00 1.68328000e+01	N
atom  8.66248000e-01 7.45694000e+00 1.63302000e+01	N
atom  -2.70956000e-01 9.77601000e+00 1.73270000e+01	N
atom  2.54955000e-01 6.30622000e+00 1.84643000e+01	N
atom  5.86485000e-01 5.74518000e+00 1.63687000e+01	Si
atom  1.39395000e+00 8.45471000e+00 1.50545000e+01	Si
atom  1.02959000e+00 8.80072000e+00 1.92214000e+01	N
atom  4.13438000e-02 7.98842000e+00 1.78885000e+01	Si
atom  1.03660000e+00 1.41949000e+00 2.03418000e+01	N
atom  9.54800000e-01 3.09361000e+00 2.10713000e+01	Si
atom  1.28782000e+00 4.23775000e+00 1.97781000e+01	N
atom  1.27467000e+00 5.36470000e+00 2.42552000e+01	N
atom  3.95602000e-01 6.40363000e+00 2.31117000e+01	Si
atom  7.21853000e-01 9.43104000e+00 2.34051000e+01	Si
atom  1.33532000e+00 7.84258000e+00 2.37257000e+01	N
atom  1.49937000e-01 6.16670000e+00 2.13673000e+01	N
atom  1.11081000e+00 5.97389000e+00 1.99403000e+01	Si
atom  -2.09762000e-01 9.91721000e+00 2.48090000e+01	N
atom  1.18841000e+00 1.68148000e+00 2.48256000e+01	N
atom  2.65329000e-01 2.65303000e+00 2.92111000e+01	N
atom  5.50281000e-01 4.33632000e+00 2.54511000e+01	Si
atom  1.56115000e+00 3.54309000e+00 2.83363000e+01	Si
atom  1.78315000e+00 3.57695000e+00 2.65179000e+01	N
atom  1.57994000e+00 8.64712000e+00 2.90336000e+01	Si
atom  1.60447000e+00 5.26268000e+00 2.86470000e+01	N
atom  -1.06932000e-01 5.61782000e+00 2.64385000e+01	N
atom  1.02555000e+00 6.36635000e+00 2.74195000e+01	Si
atom  3.07892000e-01 7.70459000e+00 2.83807000e+01	N
atom  2.86300000e-01 3.39264000e+00 3.24259000e+01	Si
atom  1.06521000e+00 4.83925000e+00 3.29885000e+01	N
atom  1.54721000e+00 2.45359000e+00 3.16510000e+01	N
atom  1.08867000e+00 1.42951000e+00 3.02133000e+01	Si
atom  1.11756000e+00 5.27142000e+00 3.46986000e+01	Si
atom  8.70417000e-01 7.84263000e+00 3.34137000e+01	Si
atom  1.28538000e+00 9.57658000e+00 3.33771000e+01	N
atom  1.76854000e+00 9.56342000e+00 3.05955000e+01	N
atom  7.07759000e-01 1.01570000e+01 3.18514000e+01	Si
atom  1.45834000e+00 6.93027000e+00 3.47144000e+01	N
atom  1.54720000e+00 1.04140000e+01 3.48101000e+01	Si
atom  1.64231000e-01 1.94197000e+00 3.82107000e+01	Si
atom  1.59201000e+00 1.80490000e+00 3.71495000e+01	N
atom  1.60945000e+00 9.39268000e+00 3.62630000e+01	N
atom  1.48223000e+00 7.69518000e+00 3.62775000e+01	Si
atom  -1.84740000e-01 7.42688000e+00 3.68300000e+01	N
atom  1.05536000e+00 8.79595000e+00 3.89415000e+01	N
atom  6.35894000e-01 1.19864000e+01 3.21903000e+00	N
atom  7.26825000e-01 1.46187000e+01 1.58629000e+00	N
atom  -5.41084000e-02 1.33659000e+01 2.56327000e+00	Si
atom  1.73024000e-03 1.18811000e+01 4.91903000e+00	Si
atom  2.30967000e-01 1.53838000e+01 4.47096000e-02	Si
atom  7.51512000e-01 1.97542000e+01 3.15378000e+00	N
atom  1.25822000e+00 1.73953000e+01 2.72936000e+00	N
atom  7.42908000e-01 1.92647000e+01 5.35074000e-01	N
atom  1.70708000e-01 1.85883000e+01 2.02222000e+00	Si
atom  1.60849000e+00 1.64690000e+01 1.78376000e-01	N
atom  1.78925000e+00 1.59839000e+01 1.85305000e+00	Si
atom  7.42146000e-01 1.17301000e+01 9.00010000e+00	Si
atom  4.87807000e-01 1.33940000e+01 5.57719000e+00	N
atom  5.37593000e-01 1.04793000e+01 5.76565000e+00	N
atom  1.74527000e+00 1.26166000e+01 7.95628000e+00	N
atom  3.46951000e-01 1.95250000e+01 7.98861000e+00	Si
atom  6.72448000e-01 1.78547000e+01 7.72493000e+00	N
atom  2.91542000e-01 1.62852000e+01 5.80082000e+00	N
atom  1.63530000e+00 1.74382000e+01 6.21523000e+00	Si
atom  -3.33228000e-01 2.02550000e+01 9.41774000e+00	N
atom  1.09834000e+00 1.22832000e+01 1.13808000e+01	Si
atom  8.45865000e-01 1.27192000e+01 1.38686000e+01	Si
atom  1.30727000e+00 1.08250000e+01 1.03703000e+01	N
atom  1.47548000e+00 1.44964000e+01 1.01305000e+01	Si
atom  3.29424000e-01 1.31921000e+01 1.00323000e+01	N
atom  -2.65749000e-01 1.27622000e+01 1.25066000e+01	N
atom  1.60128000e+00 1.42604000e+01 1.38718000e+01	N
atom  2.00649000e+00 1.16814000e+01 1.28629000e+01	N
atom  6.15507000e-01 1.78075000e+01 1.27745000e+01	N
atom  5.64136000e-01 1.57575000e+01 1.09141000e+01	N
atom  1.57132000e+00 1.70073000e+01 1.16573000e+01	Si
atom  -7.48223000e-03 1.79536000e+01 1.44545000e+01	Si
atom  1.91511000e+00 2.01134000e+01 1.43744000e+01	N
atom  3.37089000e-01 2.03440000e+01 1.19994000e+01	N
atom  1.52299000e+00 1.44807000e+01 1.67048000e+01	N
atom  3.30950000e-01 1.20766000e+01 1.54007000e+01	N
atom  3.50736000e-01 1.46026000e+01 1.80488000e+01	Si
atom  7.85794000e-01 1.33829000e+01 1.91487000e+01	N
atom  8.46361000e-01 1.05930000e+01 1.61209000e+01	Si
atom  1.77685000e+00 1.11890000e+01 1.77605000e+01	N
atom  5.38588000e-01 1.03888000e+01 1.87777000e+01	Si
atom  -1.67027000e-02 1.88962000e+01 1.59564000e+01	N
atom  -4.38538000e-01 1.72187000e+01 1.91729000e+01	Si
atom  1.60044000e+00 1.53984000e+01 1.51938000e+01	Si
atom  8.38742000e-01 1.61202000e+01 1.87383000e+01	N
atom  1.55858000e-01 1.63009000e+01 1.50980000e+01	N
atom  2.04252000e-01 1.88425000e+01 1.88770000e+01	N
atom  1.56205000e+00 1.96857000e+01 1.59695000e+01	Si
atom  3.77097000e-01 1.09221000e+01 2.13960000e+01	Si
atom  1.18249000e-01 1.34590000e+01 2.32482000e+01	Si
atom  -1.82662000e-01 1.24805000e+01 2.18688000e+01	N
atom  1.83750000e+00 1.36793000e+01 2.34210000e+01	N
atom  1.73234000e+00 1.06191000e+01 2.27396000e+01	N
atom  1.76810000e+00 1.11827000e+01 2.02845000e+01	N
atom  3.56374000e-01 1.61595000e+01 2.37714000e+01	Si
atom  3.73129000e-01 2.01676000e+01 2.00861000e+01	Si
atom  1.50854000e+00 1.18149000e+01 2.57692000e+01	N
atom  1.13554000e+00 1.18734000e+01 2.86733000e+01	N
atom  -1.16197000e-01 1.15078000e+01 2.55312000e+01	Si
atom  -4.61043000e-01 1.25275000e+01 2.84780000e+01	Si
atom  1.54834000e+00 1.55410000e+01 2.81352000e+01	N
atom  3.90302000e-02 1.57728000e+01 2.89495000e+01	Si
atom  9.22366000e-02 1.89076000e+01 2.63304000e+01	N
atom  2.42613000e-01 1.89277000e+01 2.89843000e+01	N
atom  1.68066000e+00 1.56068000e+01 2.64569000e+01	Si
atom  2.84276000e-01 1.58278000e+01 2.54637000e+01	N
atom  1.12959000e+00 1.34991000e+01 3.18695000e+01	Si
atom  1.04969000e+00 1.18405000e+01 3.15237000e+01	N
atom  1.93829000e+00 1.13160000e+01 3.01006000e+01	Si
atom  3.39176000e-01 1.39644000e+01 3.49274000e+01	N
atom  1.84875000e+00 1.86217000e+01 3.41257000e+01	N
atom  1.86734000e-01 1.66390000e+01 3.04928000e+01	N
atom  5.87220000e-01 1.83044000e+01 3.05973000e+01	Si
atom  1.18357000e-01 1.83269000e+01 3.36379000e+01	Si
atom  1.70807000e-01 1.65652000e+01 3.34711000e+01	N
atom  1.63544000e+00 1.31483000e+01 3.82239000e+01	Si
atom  1.01851000e+00 1.15459000e+01 3.83825000e+01	N
atom  3.57811000e-01 1.44074000e+01 3.85720000e+01	N
atom  2.74482000e-01 1.13617000e+01 3.54852000e+01	N
atom  4.78891000e-01 1.05638000e+01 3.70101000e+01	Si
atom  8.62781000e-01 1.03623000e+01 3.97417000e+01	Si
atom  1.83247000e+00 1.76144000e+01 3.87074000e+01	Si
atom  5.61851000e-01 1.56524000e+01 3.49168000e+01	Si
atom  -5.09141000e-02 1.96749000e+01 3.90039000e+01	Si
atom  4.14190000e-01 1.83208000e+01 3.80543000e+01	N
atom  -4.10459000e-01 1.61494000e+01 3.63194000e+01	N
atom  8.21944000e-01 2.39972000e+01 3.44848000e+00	N
atom  8.40333000e-01 2.23912000e+01 1.15901000e+00	N
atom  1.48970000e+00 2.26289000e+01 4.39077000e+00	Si
atom  -2.08610000e-01 2.31784000e+01 2.29747000e+00	Si
atom  1.40251000e-01 2.69191000e+01 3.67396000e+00	N
atom  1.21878000e+00 2.56796000e+01 1.22040000e+00	N
atom  1.18109000e+00 2.56060000e+01 3.01705000e+00	Si
atom  1.47273000e+00 2.86355000e+01 1.89483000e+00	N
atom  -2.08099000e-01 2.80909000e+01 2.43678000e+00	Si
atom  2.02815000e-01 2.18076000e+01 5.12852000e+00	N
atom  6.66352000e-01 2.36499000e+01 7.10761000e+00	N
atom  1.32400000e+00 2.09475000e+01 7.49758000e+00	N
atom  -3.53340000e-02 2.19809000e+01 6.84811000e+00	Si
atom  3.02022000e-01 2.52497000e+01 7.73911000e+00	Si
atom  1.35757000e+00 2.54875000e+01 9.16856000e+00	N
atom  8.85038000e-01 2.93155000e+01 7.02953000e+00	Si
atom  5.72699000e-01 2.82742000e+01 8.35822000e+00	N
atom  -2.81913000e-01 2.71660000e+01 5.34667000e+00	Si
atom  8.38267000e-01 2.62090000e+01 6.35468000e+00	N
atom  -3.03048000e-01 2.87188000e+01 5.96895000e+00	N
atom  1.05401000e+00 2.71546000e+01 9.49884000e+00	Si
atom  7.82288000e-01 2.27906000e+01 1.04169000e+01	N
atom  7.48565000e-01 2.10359000e+01 1.04920000e+01	Si
atom  9.10611000e-01 2.11913000e+01 1.34151000e+01	Si
atom  -8.95689000e-02 2.21246000e+01 1.45019000e+01	N
atom  -1.02990000e-01 2.50613000e+01 1.18009000e+01	N
atom  2.07375000e+00 2.49430000e+01 1.35939000e+01	N
atom  4.99526000e-01 2.56431000e+01 1.33248000e+01	Si
atom  1.43468000e+00 2.91830000e+01 1.18523000e+01	N
atom  6.03039000e-01 2.74002000e+01 1.36301000e+01	N
atom  -2.26034000e-01 2.91297000e+01 1.12574000e+01	Si
atom  -2.12287000e-01 2.74331000e+01 1.07136000e+01	N
atom  1.85133000e+00 2.84718000e+01 1.33898000e+01	Si
atom  2.54704000e-01 2.30715000e+01 1.87151000e+01	Si
atom  -1.33364000e-02 2.50827000e+01 1.62643000e+01	Si
atom  1.54634000e+00 2.10545000e+01 1.69947000e+01	N
atom  1.85135000e-01 2.34564000e+01 1.70069000e+01	N
atom  1.11392000e+00 2.23595000e+01 1.59481000e+01	Si
atom  -3.96529000e-01 2.15093000e+01 1.92198000e+01	N
atom  4.58354000e-01 3.02806000e+01 1.53313000e+01	Si
atom  1.23309000e+00 2.77260000e+01 1.84798000e+01	N
atom  1.54922000e+00 2.57294000e+01 1.60678000e+01	N
atom  1.09322000e+00 2.12249000e+01 2.35332000e+01	N
atom  7.93545000e-01 2.40559000e+01 2.31805000e+01	N
atom  1.20954000e+00 2.27583000e+01 2.41716000e+01	Si
atom  1.57073000e+00 2.52849000e+01 2.06645000e+01	N
atom  4.93304000e-02 2.78185000e+01 2.28538000e+01	Si
atom  1.32522000e+00 2.86262000e+01 2.19518000e+01	N
atom  -1.95664000e-01 2.56362000e+01 2.06470000e+01	Si
atom  6.31350000e-01 2.80874000e+01 2.45457000e+01	N
atom  -2.43018000e-01 2.61999000e+01 2.23715000e+01	N
atom  -2.78345000e-01 2.31724000e+01 2.72874000e+01	Si
atom  9.26327000e-01 2.42307000e+01 2.77634000e+01	N
atom  9.99015000e-01 2.47176000e+01 2.94093000e+01	Si
atom  4.10888000e-01 2.29765000e+01 2.57210000e+01	N
atom  8.37952000e-01 2.05395000e+01 2.86541000e+01	Si
atom  -3.14271000e-01 2.18266000e+01 2.83795000e+01	N
atom  1.93601000e+00 2.40101000e+01 2.62725000e+01	Si
atom  1.61813000e-01 2.74547000e+01 2.72668000e+01	N
atom  3.95877000e-01 2.68318000e+01 2.56797000e+01	Si
atom  1.25455000e+00 2.65312000e+01 2.94758000e+01	N
atom  1.05471000e+00 2.97279000e+01 2.49026000e+01	Si
atom  1.67980000e+00 2.75924000e+01 2.81977000e+01	Si
atom  1.61950000e+00 2.99427000e+01 2.65173000e+01	N
atom  1.78857000e+00 2.57487000e+01 2.56259000e+01	N
atom  1.42953000e+00 2.29136000e+01 3.25284000e+01	N
atom  -1.06129000e-01 2.24873000e+01 3.32566000e+01	Si
atom  1.34382000e+00 2.10139000e+01 3.02837000e+01	N
atom  -2.16597000e-01 2.36783000e+01 3.02470000e+01	N
atom  -2.73032000e-01 2.07658000e+01 3.35480000e+01	N
atom  1.86934000e+00 2.25277000e+01 3.09259000e+01	Si
atom  -5.03527000e-01 2.35597000e+01 3.45675000e+01	N
atom  5.18774000e-01 2.75078000e+01 3.08288000e+01	Si
atom  9.09702000e-01 2.91538000e+01 3.29811000e+01	Si
atom  1.34879000e+00 2.86316000e+01 3.45487000e+01	N
atom  -3.91446000e-01 2.65114000e+01 3.45506000e+01	N
atom  -1.50081000e-01 2.61195000e+01 3.16883000e+01	N
atom  -5.40891000e-01 2.84866000e+01 3.23673000e+01	N
atom  3.51143000e-01 2.50179000e+01 3.50404000e+01	Si
atom  8.41794000e-01 2.08864000e+01 3.58808000e+01	N
atom  1.44430000e+00 2.09244000e+01 3.87300000e+01	N
atom  3.50135000e-01 2.34232000e+01 3.85402000e+01	N
atom  1.90738000e-01 2.20095000e+01 3.94809000e+01	Si
atom  6.74554000e-01 2.50945000e+01 3.68292000e+01	N
atom  1.75691000e+00 2.40256000e+01 3.77851000e+01	Si
atom  1.30275000e+00 2.66238000e+01 3.76229000e+01	Si
atom  1.56698000e+00 2.76988000e+01 3.90567000e+01	N
atom  -4.20860000e-02 2.80693000e+01 3.52923000e+01	Si
atom  -1.81320000e-01 2.99994000e+01 3.89838000e+01	N
atom  9.97835000e-01 2.90336000e+01 3.80943000e+01	Si
atom  3.02559000e-01 2.78692000e+01 3.69450000e+01	N
atom  8.57417000e-01 3.28724000e+01 1.34783000e+00	Si
atom  1.37343000e+00 3.30759000e+01 3.02233000e+00	N
atom  3.91147000e-02 3.33600000e+01 4.07091000e+00	Si
atom  -1.36769000e-01 3.43455000e+01 1.25360000e+00	N
atom  -2.27461000e-01 3.14827000e+01 1.38426000e+00	N
atom  6.80461000e-01 3.03634000e+01 3.88187000e+00	N
atom  -2.52549000e-02 3.57263000e+01 2.32639000e+00	Si
atom  1.61821000e+00 3.60762000e+01 2.48375000e+00	N
atom  -4.56107000e-02 3.48967000e+01 7.44076000e+00	Si
atom  6.46769000e-01 3.29530000e+01 9.21046000e+00	N
atom  3.31930000e-01 3.08909000e+01 7.55103000e+00	N
atom  6.96706000e-01 3.28050000e+01 5.60008000e+00	N
atom  5.81233000e-01 3.12264000e+01 9.28738000e+00	Si
atom  1.67228000e+00 3.48513000e+01 7.46896000e+00	N
atom  1.73282000e+00 3.83863000e+01 8.86994000e+00	Si
atom  1.47859000e+00 3.83885000e+01 5.64338000e+00	Si
atom  1.89998000e-02 3.81628000e+01 8.78690000e+00	N
atom  -1.35063000e-01 3.89938000e+01 6.20536000e+00	N
atom  1.12450000e+00 3.28875000e+01 1.39368000e+01	Si
atom  1.21249000e-01 3.42888000e+01 1.40035000e+01	N
atom  2.54559000e-02 3.15954000e+01 1.43018000e+01	N
atom  3.99592000e-01 3.50390000e+01 1.13770000e+01	N
atom  -3.92010000e-01 3.40416000e+01 1.01649000e+01	Si
atom  5.67366000e-02 3.81111000e+01 1.25965000e+01	Si
atom  1.65848000e+00 3.85236000e+01 1.23762000e+01	N
atom  1.90280000e-01 3.66195000e+01 1.00072000e+01	Si
atom  -2.88555000e-01 3.68683000e+01 1.38381000e+01	N
atom  -4.20203000e-01 3.54380000e+01 1.28995000e+01	Si
atom  1.73307000e+00 3.39368000e+01 1.97255000e+01	Si
atom  8.56359000e-01 3.14754000e+01 1.82094000e+01	Si
atom  1.42542000e+00 3.48371000e+01 1.64593000e+01	N
atom  -1.69714000e-01 3.47194000e+01 1.57013000e+01	Si
atom  1.18408000e+00 3.04185000e+01 1.69036000e+01	N
atom  8.96995000e-01 3.02572000e+01 1.95125000e+01	N
atom  -3.55823000e-01 3.87604000e+01 1.60670000e+01	N
atom  -2.23632000e-02 3.88165000e+01 1.77638000e+01	Si
atom  7.69556000e-04 4.02091000e+01 1.50023000e+01	Si
atom  1.78642000e+00 4.01045000e+01 1.51148000e+01	N
atom  1.40403000e+00 3.98122000e+01 1.78627000e+01	N
atom  1.60816000e+00 3.62624000e+01 1.75470000e+01	Si
atom  2.32973000e-01 3.71703000e+01 1.83464000e+01	N
atom  5.47982000e-02 3.29759000e+01 2.23399000e+01	Si
atom  1.64189000e-01 3.13217000e+01 2.21177000e+01	N
atom  1.37016000e+00 3.36747000e+01 2.33955000e+01	N
atom  1.99697000e-01 3.37656000e+01 2.07636000e+01	N
atom  1.56789000e+00 3.03156000e+01 2.21121000e+01	Si
atom  -3.67781000e-01 3.65086000e+01 2.10122000e+01	N
atom  1.73845000e+00 3.98782000e+01 2.26518000e+01	N
atom  1.33165000e+00 3.54378000e+01 2.38208000e+01	Si
atom  1.46771000e+00 3.70958000e+01 2.32468000e+01	N
atom  9.13388000e-01 3.97576000e+01 2.10814000e+01	Si
atom  9.53740000e-01 3.69381000e+01 1.99317000e+01	Si
atom  1.72423000e+00 3.82823000e+01 2.05978000e+01	N
atom  -1.81707000e-01 3.70743000e+01 2.27313000e+01	Si
atom  9.23156000e-01 3.28847000e+01 2.92861000e+01	Si
atom  7.57640000e-01 3.16561000e+01 2.81302000e+01	N
atom  -7.67040000e-02 3.07331000e+01 2.68958000e+01	Si
atom  -3.40227000e-01 3.08070000e+01 2.51814000e+01	N
atom  -4.26815000e-01 3.38752000e+01 2.97333000e+01	N
atom  1.40574000e+00 3.55694000e+01 2.55586000e+01	N
atom  1.35554000e+00 3.92173000e+01 2.77640000e+01	N
atom  -2.49870000e-01 3.90395000e+01 2.72486000e+01	Si
atom  5.11931000e-01 3.59196000e+01 2.81997000e+01	N
atom  1.42928000e+00 3.90292000e+01 2.94991000e+01	Si
atom  -1.44419000e-02 3.59334000e+01 2.65029000e+01	Si
atom  2.79805000e-01 3.18734000e+01 3.18446000e+01	Si
atom  5.08552000e-01 3.08360000e+01 3.32361000e+01	N
atom  1.56222000e+00 3.24794000e+01 3.08778000e+01	N
atom  -1.02799000e-02 3.45138000e+01 3.12703000e+01	Si
atom  1.59237000e+00 3.51362000e+01 3.14132000e+01	N
atom  -5.39434000e-01 3.32776000e+01 3.24193000e+01	N
atom  8.16159000e-01 3.76047000e+01 3.28274000e+01	N
atom  1.46298000e+00 3.87666000e+01 3.38794000e+01	Si
atom  3.60732000e-01 3.99102000e+01 3.45943000e+01	N
atom  7.01794000e-02 3.99243000e+01 3.01202000e+01	N
atom  -9.29446000e-02 3.58441000e+01 3.45992000e+01	N
atom  1.77795000e+00 3.74658000e+01 2.99999000e+01	N
atom  6.85922000e-02 3.16404000e+01 3.60459000e+01	N
atom  1.48266000e+00 3.46459000e+01 3.72531000e+01	Si
atom  -1.42053000e-01 3.42639000e+01 3.67040000e+01	N
atom  1.74594000e+00 3.15159000e+01 3.64102000e+01	Si
atom  1.83275000e+00 3.89069000e+01 3.82594000e+01	N
atom  1.97745000e-01 3.94351000e+01 3.87177000e+01	Si
atom  1.31722000e+00 3.62950000e+01 3.54808000e+01	Si
atom  9.71152000e-01 3.64583000e+01 3.72883000e+01	N
atom  3.67073000e+00 3.90355000e+00 3.42707000e+00	N
atom  3.75420000e+00 4.94377000e+00 8.85181000e-01	N
atom  1.98797000e+00 3.95704000e+00 3.67435000e+00	Si
atom  2.01132000e+00 5.01003000e+00 1.07997000e+00	Si
atom  2.04106000e+00 7.65815000e+00 4.02893000e+00	N
atom  3.75653000e+00 9.88611000e+00 7.75786000e-01	Si
atom  2.80129000e+00 1.02727000e+01 3.60726000e+00	N
atom  2.89539000e+00 4.60809000e+00 9.58499000e+00	Si
atom  2.69233000e+00 3.40387000e+00 8.28539000e+00	N
atom  3.49462000e+00 1.88870000e+00 6.07136000e+00	N
atom  3.10105000e+00 3.45773000e+00 6.53879000e+00	Si
atom  2.61809000e+00 1.74718000e+00 8.96538000e+00	Si
atom  3.66595000e+00 5.31352000e-01 5.16011000e+00	Si
atom  2.66080000e+00 8.45810000e+00 9.16357000e+00	N
atom  2.75451000e+00 9.05287000e+00 6.35138000e+00	N
atom  3.15681000e+00 7.68799000e+00 5.26442000e+00	Si
atom  4.11015000e+00 7.56551000e+00 9.71123000e+00	Si
atom  3.79426000e+00 6.00037000e+00 9.03716000e+00	N
atom  1.97485000e+00 8.07868000e+00 7.63459000e+00	Si
atom  2.42972000e+00 6.61647000e+00 6.65838000e+00	N
atom  3.92889000e+00 6.01410000e+00 7.32275000e+00	Si
atom  3.24624000e+00 2.47245000e+00 1.18018000e+01	Si
atom  2.49331000e+00 1.02943000e+00 1.27170000e+01	N
atom  3.92180000e+00 3.73047000e+00 1.06989000e+01	N
atom  3.27841000e+00 5.22171000e+00 1.45615000e+01	N
atom  2.05369000e+00 2.14060000e+00 1.40644000e+01	Si
atom  2.06893000e+00 3.50671000e+00 1.27079000e+01	N
atom  3.05298000e+00 7.54016000e+00 1.25455000e+01	Si
atom  2.86127000e+00 7.89500000e+00 1.42867000e+01	N
atom  2.31003000e+00 9.00322000e+00 1.18862000e+01	N
atom  3.67720000e+00 9.40186000e+00 1.47350000e+01	Si
atom  4.31164000e+00 7.18500000e+00 1.13988000e+01	N
atom  3.28607000e+00 2.67311000e+00 1.51607000e+01	N
atom  2.68703000e+00 2.52951000e+00 1.84127000e+01	N
atom  3.22680000e+00 4.21537000e+00 1.59739000e+01	Si
atom  4.32416000e+00 3.07815000e+00 1.84982000e+01	Si
atom  2.65475000e+00 8.44247000e+00 1.95791000e+01	Si
atom  2.38043000e+00 9.84103000e+00 1.57084000e+01	N
atom  3.53083000e+00 8.81927000e+00 1.81462000e+01	N
atom  4.04039000e+00 6.65357000e+00 1.48478000e+01	Si
atom  2.67005000e+00 6.74912000e+00 1.98266000e+01	N
atom  3.58154000e+00 2.22509000e+00 2.42364000e+01	N
atom  2.19521000e+00 2.77460000e+00 2.22429000e+01	N
atom  3.85987000e+00 3.07260000e+00 2.26872000e+01	Si
atom  2.21529000e+00 1.42914000e+00 2.33872000e+01	Si
atom  3.56786000e+00 9.27731000e+00 2.07851000e+01	N
atom  3.96186000e+00 6.90995000e+00 2.40984000e+01	N
atom  2.32323000e+00 6.78474000e+00 2.47322000e+01	Si
atom  3.27591000e+00 1.31337000e+00 2.69783000e+01	N
atom  2.87709000e+00 2.91265000e+00 2.92187000e+01	N
atom  2.58058000e+00 2.26802000e+00 2.57321000e+01	Si
atom  4.10831000e+00 2.20887000e+00 2.81682000e+01	Si
atom  3.24914000e+00 8.42581000e+00 2.67595000e+01	Si
atom  3.73471000e+00 9.41064000e+00 2.54013000e+01	N
atom  3.04993000e+00 5.88870000e+00 2.94957000e+01	Si
atom  3.04560000e+00 7.65616000e+00 2.96427000e+01	N
atom  2.25390000e+00 9.54474000e+00 2.76639000e+01	N
atom  2.27093000e+00 7.09879000e+00 2.64514000e+01	N
atom  3.06844000e+00 4.93168000e+00 3.09813000e+01	N
atom  3.07471000e+00 3.27812000e+00 3.09092000e+01	Si
atom  2.75720000e+00 1.66223000e+00 3.28274000e+01	Si
atom  2.64131000e+00 2.68492000e+00 3.41926000e+01	N
atom  4.07248000e+00 2.12801000e+00 3.17131000e+01	N
atom  4.23240000e+00 6.84834000e-01 3.06049000e+01	Si
atom  3.95271000e+00 3.93830000e+00 3.47104000e+01	Si
atom  2.52702000e+00 3.67112000e-01 3.01527000e+01	N
atom  3.67967000e+00 5.34725000e+00 3.36353000e+01	N
atom  4.17698000e+00 9.11316000e+00 3.20540000e+01	N
atom  2.51691000e+00 5.67464000e+00 3.24054000e+01	Si
atom  2.88369000e+00 8.36263000e+00 3.12556000e+01	Si
atom  1.86763000e+00 7.26465000e+00 3.21388000e+01	N
atom  2.05431000e+00 4.48438000e+00 3.58853000e+01	N
atom  3.93351000e+00 1.32753000e+00 3.85336000e+01	N
atom  2.28135000e+00 2.81650000e+00 3.58928000e+01	Si
atom  3.26946000e+00 4.23390000e+00 3.82353000e+01	N
atom  4.17829000e+00 2.65795000e+00 3.61243000e+01	N
atom  2.63990000e+00 4.62577000e-01 3.76992000e+01	Si
atom  3.15559000e+00 5.35615000e+00 3.69681000e+01	Si
atom  2.25787000e+00 7.57758000e+00 3.89439000e+01	Si
atom  2.54460000e+00 6.85562000e+00 3.73854000e+01	N
atom  3.59671000e+00 8.43081000e+00 3.96748000e+01	N
atom  3.12928000e+00 1.26229000e+01 1.92296000e+00	N
atom  3.98701000e+00 1.40296000e+01 2.51163000e+00	Si
atom  4.06271000e+00 1.27806000e+01 3.76816000e-01	Si
atom  2.06935000e+00 1.13148000e+01 2.43348000e+00	Si
atom  2.15039000e+00 1.04498000e+01 9.53574000e-01	N
atom  3.30819000e+00 1.55492000e+01 2.60414000e+00	N
atom  3.66876000e+00 1.83918000e+01 3.28654000e+00	N
atom  2.28723000e+00 1.99693000e+01 1.15798000e-01	Si
atom  2.01059000e+00 1.87016000e+01 3.79645000e+00	Si
atom  1.95918000e+00 1.31670000e+01 6.40267000e+00	Si
atom  3.57485000e+00 1.47646000e+01 8.00065000e+00	Si
atom  2.86664000e+00 1.18580000e+01 5.67990000e+00	N
atom  3.11883000e+00 1.44286000e+01 6.33824000e+00	N
atom  4.17514000e+00 1.34571000e+01 8.99173000e+00	N
atom  2.20484000e+00 1.02528000e+01 5.26739000e+00	Si
atom  3.86848000e+00 2.03704000e+01 7.64030000e+00	N
atom  2.22268000e+00 1.53117000e+01 8.81128000e+00	N
atom  2.98821000e+00 1.71505000e+01 7.24761000e+00	N
atom  2.03936000e+00 1.90124000e+01 5.52437000e+00	N
atom  1.95299000e+00 1.70051000e+01 8.68036000e+00	Si
atom  2.90323000e+00 1.45364000e+01 1.26876000e+01	Si
atom  2.52362000e+00 1.36235000e+01 1.12491000e+01	N
atom  3.00694000e+00 1.05875000e+01 1.21238000e+01	Si
atom  4.00212000e+00 1.11085000e+01 1.08080000e+01	N
atom  4.00267000e+00 1.27800000e+01 1.05973000e+01	Si
atom  4.00266000e+00 1.77607000e+01 1.29502000e+01	Si
atom  2.89667000e+00 1.63338000e+01 1.25149000e+01	N
atom  3.31371000e+00 1.90747000e+01 1.04961000e+01	Si
atom  3.43355000e+00 1.91852000e+01 1.21545000e+01	N
atom  2.21509000e+00 1.77479000e+01 1.02261000e+01	N
atom  4.26380000e+00 1.82853000e+01 1.45567000e+01	N
atom  3.16183000e+00 1.47254000e+01 1.71628000e+01	Si
atom  3.66718000e+00 1.29366000e+01 1.88948000e+01	N
atom  2.09319000e+00 1.22872000e+01 1.90447000e+01	Si
atom  3.08665000e+00 1.02250000e+01 1.72182000e+01	Si
atom  2.47113000e+00 1.85516000e+01 1.68911000e+01	N
atom  1.90833000e+00 1.88051000e+01 1.85462000e+01	Si
atom  3.66628000e+00 1.76020000e+01 1.61333000e+01	Si
atom  3.59251000e+00 1.57848000e+01 1.84099000e+01	N
atom  3.25243000e+00 1.59361000e+01 1.56885000e+01	N
atom  2.36557000e+00 1.61405000e+01 1.95982000e+01	Si
atom  2.17583000e+00 2.02416000e+01 1.95690000e+01	N
atom  2.68472000e+00 1.78589000e+01 1.97648000e+01	N
atom  2.85361000e+00 1.49937000e+01 2.26837000e+01	Si
atom  3.00737000e+00 1.08193000e+01 2.15600000e+01	Si
atom  3.89601000e+00 1.21350000e+01 2.44355000e+01	N
atom  2.97096000e+00 1.49416000e+01 2.09271000e+01	N
atom  4.05043000e+00 1.23350000e+01 2.16846000e+01	N
atom  4.07710000e+00 1.36463000e+01 2.04749000e+01	Si
atom  3.22048000e+00 1.93294000e+01 2.07225000e+01	Si
atom  1.99775000e+00 1.63614000e+01 2.34958000e+01	N
atom  2.35620000e+00 1.91734000e+01 2.21117000e+01	N
atom  2.50574000e+00 2.01611000e+01 2.34693000e+01	Si
atom  2.96504000e+00 1.73199000e+01 2.45139000e+01	Si
atom  4.03960000e+00 1.40125000e+01 2.88384000e+01	N
atom  2.49336000e+00 1.30774000e+01 2.48985000e+01	Si
atom  2.14803000e+00 1.12960000e+01 2.73804000e+01	Si
atom  3.64803000e+00 1.20211000e+01 2.70483000e+01	N
atom  2.83378000e+00 1.43691000e+01 2.59497000e+01	N
atom  2.74506000e+00 1.51045000e+01 2.93399000e+01	Si
atom  2.56293000e+00 1.91787000e+01 2.48021000e+01	N
atom  2.18560000e+00 2.01816000e+01 2.75299000e+01	N
atom  2.32849000e+00 1.72248000e+01 2.61625000e+01	N
atom  4.14002000e+00 2.00748000e+01 2.94702000e+01	N
atom  1.80500000e+00 1.88946000e+01 2.63530000e+01	Si
atom  3.36694000e+00 1.46953000e+01 3.20879000e+01	Si
atom  3.64719000e+00 1.14919000e+01 3.01545000e+01	N
atom  2.22375000e+00 1.36227000e+01 3.31900000e+01	N
atom  2.15946000e+00 1.44396000e+01 3.08658000e+01	N
atom  2.77169000e+00 1.16331000e+01 3.47731000e+01	N
atom  3.32299000e+00 1.63410000e+01 3.25156000e+01	N
atom  3.54561000e+00 1.74030000e+01 3.11561000e+01	Si
atom  2.84828000e+00 1.70994000e+01 3.40125000e+01	Si
atom  2.24421000e+00 1.85908000e+01 3.09872000e+01	N
atom  3.91943000e+00 1.63104000e+01 2.98574000e+01	N
atom  2.45336000e+00 1.35397000e+01 3.66373000e+01	N
atom  3.20062000e+00 1.33857000e+01 3.89967000e+01	N
atom  4.13032000e+00 1.34993000e+01 3.73650000e+01	Si
atom  2.03646000e+00 1.32473000e+01 3.48918000e+01	Si
atom  2.33114000e+00 1.57698000e+01 3.50221000e+01	N
atom  3.06396000e+00 1.98920000e+01 3.64470000e+01	N
atom  4.04683000e+00 1.74993000e+01 3.52850000e+01	N
atom  3.53566000e+00 1.61441000e+01 3.62330000e+01	Si
atom  2.73683000e+00 1.67330000e+01 3.76067000e+01	N
atom  3.06619000e+00 1.87348000e+01 3.92751000e+01	N
atom  3.18972000e+00 2.39091000e+01 7.25038000e-01	N
atom  2.75683000e+00 2.22112000e+01 3.18905000e+00	N
atom  2.53051000e+00 2.24976000e+01 1.51867000e+00	Si
atom  3.37003000e+00 2.10946000e+01 9.28944000e-01	N
atom  3.95931000e+00 2.21873000e+01 4.45007000e+00	Si
atom  2.71963000e+00 2.55582000e+01 3.66009000e-01	Si
atom  3.29510000e+00 2.88978000e+01 4.07539000e+00	N
atom  2.71067000e+00 2.60605000e+01 3.74374000e+00	N
atom  3.58696000e+00 2.70631000e+01 7.63133000e-01	N
atom  3.83698000e+00 2.72741000e+01 4.04406000e+00	Si
atom  2.42860000e+00 2.82888000e+01 5.05943000e-01	Si
atom  2.07007000e+00 2.96138000e+01 3.20440000e+00	Si
atom  4.32036000e+00 3.01640000e+01 4.72691000e+00	Si
atom  4.29440000e+00 2.04645000e+01 4.80782000e+00	N
atom  2.76556000e+00 2.22256000e+01 5.67186000e+00	N
atom  2.34102000e+00 2.32557000e+01 7.05356000e+00	Si
atom  3.18865000e+00 2.47170000e+01 6.50993000e+00	N
atom  2.98753000e+00 2.29701000e+01 8.64304000e+00	N
atom  2.68512000e+00 2.12237000e+01 8.53016000e+00	Si
atom  1.99700000e+00 2.39483000e+01 9.81904000e+00	Si
atom  3.00459000e+00 2.04402000e+01 6.09298000e+00	Si
atom  3.96588000e+00 2.84481000e+01 6.77127000e+00	Si
atom  2.42584000e+00 2.59454000e+01 5.56536000e+00	Si
atom  2.62893000e+00 2.95265000e+01 6.98573000e+00	N
atom  4.13704000e+00 2.68833000e+01 9.50818000e+00	Si
atom  3.81883000e+00 2.70506000e+01 5.75440000e+00	N
atom  3.08970000e+00 2.42943000e+01 1.11243000e+01	N
atom  2.89612000e+00 2.36755000e+01 1.27150000e+01	Si
atom  2.29150000e+00 2.20309000e+01 1.27999000e+01	N
atom  3.15781000e+00 2.04672000e+01 1.32640000e+01	Si
atom  2.30806000e+00 2.04331000e+01 9.99385000e+00	N
atom  4.43391000e+00 2.36551000e+01 1.35169000e+01	N
atom  2.72908000e+00 2.92953000e+01 1.06101000e+01	Si
atom  3.53225000e+00 2.78168000e+01 1.34958000e+01	N
atom  2.66007000e+00 2.77343000e+01 9.78136000e+00	N
atom  1.79544000e+00 2.97085000e+01 1.44787000e+01	N
atom  4.21010000e+00 2.24515000e+01 1.47663000e+01	Si
atom  2.68456000e+00 2.48258000e+01 1.51615000e+01	Si
atom  2.65220000e+00 2.30385000e+01 1.53851000e+01	N
atom  2.57277000e+00 2.15109000e+01 1.84766000e+01	Si
atom  2.57346000e+00 2.46313000e+01 1.94911000e+01	Si
atom  4.25254000e+00 2.16231000e+01 1.82303000e+01	N
atom  1.98196000e+00 2.30987000e+01 1.89721000e+01	N
atom  4.22684000e+00 2.55725000e+01 1.55223000e+01	N
atom  3.00553000e+00 2.56540000e+01 1.81769000e+01	N
atom  2.14079000e+00 2.67856000e+01 1.72318000e+01	Si