lattice_vector  3.98806384e+01 0.00000000e+00 0.00000000e+00
lattice_vector  2.44198481e-15 3.98806384e+01 0.00000000e+00
lattice_vector  2.44198481e-15 2.44198481e-15 3.98806384e+01
atom  1.93433000e+00 1.63771000e+00 3.28092000e+00	N
atom  2.21007000e+00 1.70267000e+00 2.12229000e-01	N
atom  1.46290000e+00 1.11058000e+00 1.66272000e+00	Si
atom  -1.65266000e-01 1.69248000e+00 1.77210000e+00	N
atom  4.24953000e+00 9.67431000e-01 1.45264000e+00	N
atom  3.72297000e+00 2.51787000e+00 8.79124000e-01	Si
atom  4.97655000e+00 8.39297000e-01 3.06692000e+00	Si
atom  5.08168000e+00 2.04697000e+00 4.23957000e+00	N
atom  9.29410000e+00 1.66195000e+00 2.86242000e+00	N
atom  1.74300000e+00 2.17621000e+00 6.09178000e+00	N
atom  1.97244000e+00 1.51579000e+00 9.17193000e+00	N
atom  9.27525000e-01 5.68613000e-01 6.26069000e+00	Si
atom  3.37782000e+00 2.42010000e+00 9.51236000e+00	Si
atom  5.84571000e-01 2.63448000e+00 9.38371000e+00	Si
atom  6.71129000e+00 4.69060000e-01 5.97231000e+00	N
atom  8.71386000e+00 2.49076000e+00 9.01324000e+00	Si
atom  6.36063000e+00 2.09560000e+00 5.47817000e+00	Si
atom  4.95807000e+00 2.30343000e+00 8.89892000e+00	N
atom  8.85700000e+00 1.23400000e+00 7.78312000e+00	N
atom  6.21296000e+00 1.49844000e+00 9.86329000e+00	Si
atom  1.92278000e+00 2.28326000e+00 1.21026000e+01	Si
atom  4.24217000e+00 8.24512000e-01 1.36756000e+01	N
atom  3.43524000e+00 2.28367000e+00 1.11988000e+01	N
atom  1.63608000e+00 6.18936000e-01 1.26479000e+01	N
atom  5.27392000e-01 2.55551000e+00 1.12201000e+01	N
atom  4.70422000e+00 1.79587000e+00 1.23001000e+01	Si
atom  5.76849000e+00 8.18442000e-01 1.14265000e+01	N
atom  9.53845000e+00 1.23164000e+00 1.36344000e+01	N
atom  9.10381000e+00 2.49879000e+00 1.47320000e+01	Si
atom  3.72953000e+00 4.56705000e-01 1.72434000e+01	Si
atom  8.23449000e-01 1.21134000e+00 1.76585000e+01	N
atom  3.29861000e+00 2.04532000e+00 1.68801000e+01	N
atom  1.58294000e+00 9.30301000e-01 1.93024000e+01	Si
atom  5.37850000e+00 5.39211000e-01 1.49004000e+01	Si
atom  6.33658000e+00 1.41389000e+00 1.78169000e+01	Si
atom  5.82866000e+00 1.68383000e+00 1.61138000e+01	N
atom  8.97204000e+00 2.09364000e+00 1.63426000e+01	N
atom  7.77649000e+00 1.28699000e+00 1.87438000e+01	N
atom  9.18852000e+00 2.17247000e+00 1.80859000e+01	Si
atom  9.22859000e-01 1.31493000e+00 2.28337000e+01	N
atom  3.65919000e+00 1.44848000e+00 2.33001000e+01	N
atom  3.12441000e+00 9.35578000e-01 2.08708000e+01	N
atom  4.32667000e+00 2.00761000e+00 2.16385000e+01	Si
atom  1.34127000e+00 2.52261000e+00 1.98996000e+01	N
atom  2.39689000e+00 5.07679000e-01 2.24553000e+01	Si
atom  -4.29184000e-01 3.18037000e-01 2.31919000e+01	Si
atom  8.50331000e+00 2.30502000e+00 2.37747000e+01	N
atom  8.26970000e+00 7.71741000e-01 2.14615000e+01	N
atom  5.55780000e+00 1.27522000e+00 2.06802000e+01	N
atom  7.22632000e+00 1.58982000e+00 2.03882000e+01	Si
atom  9.41891000e+00 1.73196000e+00 2.24205000e+01	Si
atom  6.07776000e+00 1.31226000e+00 2.46685000e+01	N
atom  7.72046000e+00 1.08951000e+00 2.48269000e+01	Si
atom  3.32569000e+00 1.17175000e+00 2.65641000e+01	Si
atom  2.67153000e+00 1.64022000e+00 2.81486000e+01	N
atom  2.27806000e+00 2.31396000e+00 2.56957000e+01	N
atom  4.43251000e+00 1.70742000e+00 2.86138000e+01	Si
atom  1.84000000e+00 1.14920000e+00 2.95634000e+01	Si
atom  5.58236000e+00 2.54048000e+00 2.95483000e+01	N
atom  8.28156000e+00 1.13996000e+00 2.65267000e+01	N
atom  4.80812000e+00 1.99717000e+00 2.69314000e+01	N
atom  5.55523000e+00 2.75239000e+00 2.55526000e+01	Si
atom  3.09562000e+00 1.64993000e+00 3.23899000e+01	Si
atom  2.58642000e+00 2.12676000e+00 3.07674000e+01	N
atom  -8.59061000e-02 2.29413000e+00 3.14765000e+01	Si
atom  1.48538000e-01 1.39336000e+00 2.98848000e+01	N
atom  4.84858000e+00 1.46937000e+00 3.21685000e+01	N
atom  5.27165000e+00 1.40765000e+00 3.38207000e+01	Si
atom  8.58771000e+00 1.79312000e+00 3.30142000e+01	N
atom  8.48202000e+00 1.91474000e+00 3.12951000e+01	Si
atom  5.63969000e+00 1.19333000e+00 3.06333000e+01	Si
atom  7.23562000e+00 7.03286000e-01 3.09971000e+01	N
atom  3.82068000e+00 1.10568000e+00 3.48539000e+01	N
atom  1.26856000e+00 2.16454000e+00 3.87075000e+01	Si
atom  3.27530000e+00 2.17467000e+00 3.60806000e+01	Si
atom  2.22912000e+00 1.44124000e+00 3.73340000e+01	N
atom  -3.03849000e-01 1.43412000e+00 3.89498000e+01	N
atom  7.45732000e+00 2.60836000e+00 3.60144000e+01	N
atom  5.22995000e+00 2.21770000e+00 3.83733000e+01	Si
atom  9.43662000e+00 1.35504000e+00 3.76657000e+01	N
atom  7.69471000e+00 1.60422000e+00 3.73722000e+01	Si
atom  6.95846000e+00 2.41099000e+00 3.87310000e+01	N
atom  4.95132000e+00 5.09039000e-01 3.87051000e+01	N
atom  1.47676000e+00 4.17072000e+00 1.64407000e+00	N
atom  9.61722000e-02 3.60074000e+00 4.10381000e+00	N
atom  2.84502000e+00 4.05385000e+00 4.24414000e+00	N
atom  4.19669000e+00 3.77249000e+00 2.04780000e+00	N
atom  1.10226000e-01 3.27422000e+00 2.34884000e+00	Si
atom  2.80357000e+00 4.70513000e+00 2.53339000e+00	Si
atom  1.33751000e+00 4.81732000e+00 8.74030000e-03	Si
atom  1.63067000e+00 2.86287000e+00 4.49149000e+00	Si
atom  4.55169000e+00 3.66429000e+00 4.50271000e+00	Si
atom  7.31254000e+00 4.09047000e+00 1.44521000e+00	N
atom  5.76011000e+00 4.51382000e+00 2.14127000e+00	Si
atom  7.57209000e+00 2.86155000e+00 4.69082000e+00	N
atom  9.14314000e+00 2.87347000e+00 4.08246000e+00	Si
atom  5.80232000e+00 4.77938000e+00 3.90223000e+00	N
atom  4.25539000e+00 3.46110000e+00 6.28001000e+00	N
atom  2.92200000e+00 3.81874000e+00 8.63623000e+00	N
atom  3.27803000e-02 4.21657000e+00 8.93104000e+00	N
atom  2.66849000e+00 3.47498000e+00 6.85561000e+00	Si
atom  1.67108000e-01 4.94628000e+00 7.36693000e+00	Si
atom  9.09553000e+00 3.83886000e+00 8.03874000e+00	N
atom  6.82493000e+00 2.94111000e+00 6.96970000e+00	N
atom  5.37723000e+00 3.46515000e+00 7.70275000e+00	Si
atom  8.33273000e+00 3.73644000e+00 6.38830000e+00	Si
atom  2.30417000e+00 3.50250000e+00 1.32563000e+01	N
atom  3.71916000e+00 4.26602000e+00 1.24775000e+01	Si
atom  1.43142000e+00 4.34886000e+00 1.44445000e+01	Si
atom  -1.77668000e-01 4.68667000e+00 1.39466000e+01	N
atom  7.67889000e+00 4.26304000e+00 1.10794000e+01	Si
atom  5.14713000e+00 3.33790000e+00 1.29716000e+01	N
atom  6.30878000e+00 4.18645000e+00 1.39046000e+01	Si
atom  7.82453000e+00 3.48401000e+00 1.43118000e+01	N
atom  8.93194000e+00 4.62019000e+00 1.34051000e+01	Si
atom  7.39803000e+00 2.78653000e+00 1.01112000e+01	N
atom  9.28457000e+00 4.15580000e+00 1.17098000e+01	N
atom  7.12965000e+00 5.13190000e+00 1.26456000e+01	N
atom  1.69745000e+00 4.09935000e+00 1.79433000e+01	N
atom  8.50689000e-01 3.17817000e+00 1.55908000e+01	N
atom  1.48565000e+00 4.23518000e+00 1.96254000e+01	Si
atom  1.61089000e+00 2.60258000e+00 1.70310000e+01	Si
atom  4.80825000e+00 3.00127000e+00 1.65769000e+01	Si
atom  5.65961000e+00 3.01538000e+00 1.81533000e+01	N
atom  5.27811000e+00 4.37587000e+00 1.55508000e+01	N
atom  6.56087000e+00 4.24355000e+00 1.89325000e+01	Si
atom  9.14162000e+00 3.73811000e+00 1.87679000e+01	N
atom  2.02222000e+00 3.85751000e+00 2.30499000e+01	N
atom  3.15713000e+00 4.79461000e+00 2.20914000e+01	Si
atom  4.72393000e-01 3.02897000e+00 2.29749000e+01	Si
atom  2.69965000e+00 5.04608000e+00 2.04365000e+01	N
atom  -3.68163000e-01 3.38526000e+00 2.44727000e+01	N
atom  2.97084000e+00 2.82173000e+00 2.41990000e+01	Si
atom  4.53419000e+00 3.74493000e+00 2.18775000e+01	N
atom  7.09996000e+00 4.52871000e+00 2.29064000e+01	N
atom  7.91907000e+00 3.87965000e+00 2.42817000e+01	Si
atom  8.77432000e+00 4.02131000e+00 2.04893000e+01	Si
atom  7.16836000e+00 3.38835000e+00 2.03337000e+01	N
atom  6.08571000e+00 4.36381000e+00 2.14464000e+01	Si
atom  4.34026000e+00 3.80203000e+00 2.49404000e+01	N
atom  2.90166000e+00 4.41619000e+00 2.74868000e+01	N
atom  1.76620000e+00 3.05782000e+00 2.71884000e+01	Si
atom  1.76596000e-02 2.90738000e+00 2.72345000e+01	N
atom  3.86659000e+00 4.94007000e+00 2.62088000e+01	Si
atom  6.90508000e+00 3.67023000e+00 2.95595000e+01	Si
atom  7.08670000e+00 3.42019000e+00 2.56682000e+01	N
atom  8.26747000e+00 3.27347000e+00 2.85698000e+01	N
atom  8.28969000e+00 2.81564000e+00 2.68676000e+01	Si
atom  1.50371000e+00 3.83545000e+00 3.38909000e+01	Si
atom  2.95223000e+00 3.33067000e+00 3.29879000e+01	N
atom  3.19706000e+00 3.73788000e+00 3.11385000e+01	Si
atom  -7.08586000e-02 3.93420000e+00 3.09159000e+01	N
atom  3.51253000e-01 2.67372000e+00 3.31813000e+01	N
atom  4.45596000e+00 4.21203000e+00 3.33879000e+01	Si
atom  2.37886000e+00 4.94506000e+00 3.02994000e+01	N
atom  4.70170000e+00 4.43527000e+00 3.16928000e+01	N
atom  5.56023000e+00 3.12274000e+00 3.41658000e+01	N
atom  8.44889000e+00 4.24504000e+00 3.39411000e+01	N
atom  7.68160000e+00 3.43382000e+00 3.10957000e+01	N
atom  8.04807000e+00 4.58189000e+00 3.23314000e+01	Si
atom  8.43582000e+00 2.65079000e+00 3.45904000e+01	Si
atom  1.56631000e+00 3.85194000e+00 3.83877000e+01	N
atom  1.55977000e+00 4.87323000e+00 3.66091000e+01	Si
atom  2.23103000e+00 3.43842000e+00 3.54730000e+01	N
atom  4.34439000e+00 3.31834000e+00 3.93131000e+01	N
atom  3.31711000e+00 4.43311000e+00 3.84756000e+01	Si
atom  4.47060000e-01 4.92742000e+00 3.51818000e+01	N
atom  6.00651000e+00 3.49950000e+00 3.58206000e+01	Si
atom  9.46519000e+00 3.48146000e+00 3.94432000e+01	N
atom  7.67314000e+00 3.64077000e+00 3.96242000e+01	Si
atom  4.80107000e+00 2.75049000e+00 3.68055000e+01	N
atom  2.59438000e+00 6.32875000e+00 3.06799000e+00	N
atom  4.06688000e+00 6.61629000e+00 3.60976000e-01	Si
atom  3.14250000e-01 6.33562000e+00 4.63626000e+00	N
atom  -2.24406000e-02 5.84766000e+00 1.26275000e-02	N
atom  2.91273000e+00 5.50720000e+00 -1.33550000e-01	N
atom  2.07605000e+00 5.98629000e+00 4.83212000e+00	Si
atom  5.49418000e+00 6.02260000e+00 1.27739000e+00	N
atom  8.01732000e+00 6.44775000e+00 3.15913000e+00	N
atom  7.05956000e+00 5.84950000e+00 4.56708000e+00	Si
atom  9.27920000e+00 7.23148000e+00 2.03575000e-01	Si
atom  8.56407000e+00 5.06089000e+00 2.22384000e+00	Si
atom  1.85800000e+00 7.06924000e+00 7.43613000e+00	Si
atom  3.03770000e-01 6.60492000e+00 7.75342000e+00	N
atom  3.02887000e+00 6.69795000e+00 8.69021000e+00	N
atom  2.61253000e+00 7.22273000e+00 5.92374000e+00	N
atom  3.75300000e+00 5.25093000e+00 9.25953000e+00	Si
atom  1.64245000e+00 4.80707000e+00 6.42331000e+00	N
atom  5.32791000e+00 5.00006000e+00 8.51803000e+00	N
atom  7.01176000e+00 7.18610000e+00 7.86400000e+00	N
atom  8.49110000e+00 6.74654000e+00 7.07178000e+00	Si
atom  8.15442000e+00 5.41439000e+00 5.92326000e+00	N
atom  6.33172000e+00 6.35178000e+00 9.21363000e+00	Si
atom  6.45257000e+00 7.39687000e+00 5.16637000e+00	N
atom  3.78101000e+00 5.90334000e+00 1.32311000e+01	N
atom  3.10735000e+00 6.69074000e+00 1.46097000e+01	Si
atom  4.38853000e+00 6.74398000e+00 1.16656000e+01	Si
atom  3.93668000e+00 5.15117000e+00 1.09941000e+01	N
atom  7.14469000e+00 6.69949000e+00 1.18869000e+01	Si
atom  7.40580000e+00 5.81710000e+00 1.04045000e+01	N
atom  5.81793000e+00 7.41656000e+00 1.26724000e+01	N
atom  9.48227000e+00 6.19553000e+00 1.38462000e+01	N
atom  5.84177000e+00 7.45126000e+00 1.43625000e+01	Si
atom  5.15754000e+00 7.26575000e+00 1.00955000e+01	N
atom  2.28536000e+00 5.56244000e+00 1.71911000e+01	Si
atom  2.11375000e+00 5.58833000e+00 1.54503000e+01	N
atom  1.33528000e+00 6.82460000e+00 1.79338000e+01	N
atom  4.00795000e+00 5.58901000e+00 1.77054000e+01	N
atom  4.04661000e+00 5.71274000e+00 1.93830000e+01	Si
atom  -2.89170000e-01 6.22226000e+00 1.85223000e+01	Si
atom  4.58534000e+00 7.05442000e+00 1.54435000e+01	N
atom  7.87333000e+00 6.29347000e+00 1.67284000e+01	Si
atom  5.29877000e+00 5.81744000e+00 1.65355000e+01	Si
atom  9.39632000e+00 5.45478000e+00 1.65658000e+01	N
atom  6.99944000e+00 6.44592000e+00 1.52341000e+01	N
atom  6.69522000e+00 5.47152000e+00 1.76919000e+01	N
atom  3.10393000e+00 6.47322000e+00 2.27048000e+01	N
atom  3.49222000e+00 7.11314000e+00 2.42787000e+01	Si
atom  3.86001000e+00 7.35554000e+00 2.00996000e+01	N
atom  6.36678000e-02 5.15276000e+00 1.98324000e+01	N
atom  5.19115000e+00 6.69704000e+00 2.43113000e+01	N
atom  8.29639000e+00 5.86081000e+00 2.27235000e+01	Si
atom  8.85059000e+00 5.62577000e+00 2.09883000e+01	N
atom  8.91561000e+00 5.32949000e+00 2.42745000e+01	N
atom  5.59564000e+00 5.25265000e+00 2.00598000e+01	N
atom  -2.04297000e-01 6.77712000e+00 2.91080000e+01	Si
atom  1.55984000e-01 6.16810000e+00 2.55983000e+01	N
atom  1.18489000e+00 6.31249000e+00 2.81454000e+01	N
atom  2.80617000e+00 6.32819000e+00 2.56945000e+01	N
atom  2.60357000e+00 5.64456000e+00 2.87124000e+01	Si
atom  3.85503000e+00 6.77624000e+00 2.89928000e+01	N
atom  1.31426000e+00 6.90529000e+00 2.64334000e+01	Si
atom  5.42760000e+00 6.44366000e+00 2.84035000e+01	Si
atom  6.31635000e+00 6.50396000e+00 2.58140000e+01	Si
atom  6.14372000e+00 5.31256000e+00 2.95099000e+01	N
atom  5.27128000e+00 5.68791000e+00 2.68753000e+01	N
atom  9.12669000e+00 6.94069000e+00 2.93219000e+01	N
atom  7.91465000e+00 6.26929000e+00 2.66208000e+01	N
atom  9.38733000e+00 5.44141000e+00 2.59706000e+01	Si
atom  7.05602000e-01 6.38604000e+00 3.42615000e+01	Si
atom  1.46514000e-01 6.67978000e+00 3.07422000e+01	N
atom  1.28935000e+00 5.41816000e+00 3.29572000e+01	N
atom  4.37968000e+00 5.78374000e+00 3.41087000e+01	N
atom  9.91383000e-01 5.24085000e+00 3.12744000e+01	Si
atom  9.49019000e+00 5.58318000e+00 3.17962000e+01	N
atom  4.54283000e+00 7.30651000e+00 3.32178000e+01	Si
atom  4.71202000e+00 7.23059000e+00 3.15216000e+01	N
atom  8.62910000e+00 6.97875000e+00 3.41699000e+01	N
atom  6.88695000e+00 5.83632000e+00 3.22916000e+01	N
atom  5.60189000e+00 5.78447000e+00 3.11408000e+01	Si
atom  7.33639000e+00 7.26429000e+00 3.30317000e+01	Si
atom  9.21581000e+00 7.22656000e+00 3.10932000e+01	Si
atom  9.44514000e+00 5.49226000e+00 3.46765000e+01	Si
atom  6.78774000e-01 6.28585000e+00 3.73840000e+01	N
atom  3.21956000e+00 5.29065000e+00 3.69577000e+01	N
atom  4.52604000e+00 5.95002000e+00 3.58757000e+01	Si
atom  6.01555000e+00 5.20620000e+00 3.62125000e+01	N
atom  7.19116000e+00 5.12396000e+00 3.87861000e+01	N
atom  5.01285000e+00 7.01950000e+00 3.88633000e+01	N
atom  7.47043000e+00 5.75811000e+00 3.70984000e+01	Si
atom  9.13737000e+00 5.41403000e+00 3.63850000e+01	N
atom  6.49221000e+00 6.32828000e+00 3.97556000e+01	Si
atom  3.08979000e+00 7.89809000e+00 7.87948000e-01	N
atom  2.82133000e+00 9.17295000e+00 2.90052000e+00	N
atom  2.12296000e+00 7.76788000e+00 2.17486000e+00	Si
atom  3.49844000e-01 7.76433000e+00 2.29225000e+00	N
atom  -2.55984000e-01 7.86392000e+00 3.95154000e+00	Si
atom  3.04459000e+00 9.50062000e+00 1.71221000e-01	Si
atom  4.94558000e-01 9.25067000e+00 4.72433000e+00	N
atom  9.00378000e+00 7.80782000e+00 2.82962000e+00	Si
atom  6.63230000e+00 8.82700000e+00 4.12191000e+00	Si
atom  8.33995000e+00 9.24325000e+00 3.82718000e+00	N
atom  5.75020000e+00 9.00411000e+00 2.71779000e+00	N
atom  1.86070000e+00 8.88935000e+00 7.66192000e+00	N
atom  3.18130000e+00 8.79242000e+00 6.48787000e+00	Si
atom  4.04413000e+00 8.12426000e+00 8.99736000e+00	Si
atom  8.86037000e+00 8.41803000e+00 6.52658000e+00	N
atom  4.61859000e+00 8.38676000e+00 7.33887000e+00	N
atom  8.58434000e+00 9.34271000e+00 8.00800000e+00	Si
atom  9.21935000e+00 8.50298000e+00 9.41629000e+00	N
atom  6.26063000e+00 8.37408000e+00 6.75517000e+00	Si
atom  6.95324000e+00 9.85334000e+00 7.67612000e+00	N
atom  3.06659000e+00 7.99113000e+00 1.15564000e+01	N
atom  2.36469000e+00 8.22967000e+00 1.42882000e+01	N
atom  1.77393000e+00 8.61519000e+00 1.26584000e+01	Si
atom  2.92517000e-01 7.96225000e+00 1.22295000e+01	N
atom  3.70212000e+00 9.59813000e+00 1.11871000e+01	Si
atom  8.39556000e+00 7.94105000e+00 1.21449000e+01	N
atom  8.80158000e+00 9.16534000e+00 1.10059000e+01	Si
atom  9.39202000e+00 7.92607000e+00 1.36689000e+01	Si
atom  8.64509000e+00 9.02353000e+00 1.47574000e+01	N
atom  3.27033000e+00 8.92845000e+00 1.67480000e+01	N
atom  1.79742000e+00 8.52355000e+00 1.76370000e+01	Si
atom  1.67251000e+00 9.25253000e+00 1.91781000e+01	N
atom  8.38290000e-01 9.42182000e+00 1.64691000e+01	N
atom  2.33245000e+00 9.52160000e+00 1.54419000e+01	Si
atom  7.17083000e+00 8.60965000e+00 1.84146000e+01	Si
atom  6.00618000e+00 9.18371000e+00 1.51298000e+01	N
atom  5.65558000e+00 8.06578000e+00 1.77566000e+01	N
atom  4.89512000e+00 8.60897000e+00 1.63549000e+01	Si
atom  5.10976000e+00 8.26385000e+00 1.94095000e+01	Si
atom  8.31198000e+00 7.80963000e+00 1.73066000e+01	N
atom  9.36682000e+00 8.79487000e+00 1.63253000e+01	Si
atom  6.67239000e-01 8.63826000e+00 2.36011000e+01	N
atom  2.85929000e+00 9.23398000e+00 2.17563000e+01	N
atom  3.05793000e+00 8.78295000e+00 2.43754000e+01	N
atom  9.66504000e-01 7.64842000e+00 2.12269000e+01	N
atom  1.15369000e+00 9.49724000e+00 2.21606000e+01	Si
atom  2.94900000e-01 8.55885000e+00 1.99196000e+01	Si
atom  -1.34027000e-01 7.49294000e+00 2.25743000e+01	Si
atom  2.69275000e+00 7.52681000e+00 2.13543000e+01	Si
atom  3.80982000e+00 9.74672000e+00 2.30820000e+01	Si
atom  9.38047000e+00 8.37219000e+00 2.01963000e+01	N
atom  7.88694000e+00 8.42729000e+00 2.13185000e+01	Si
atom  6.26713000e+00 7.96256000e+00 2.37198000e+01	Si
atom  5.45530000e+00 9.27303000e+00 2.29250000e+01	N
atom  6.70763000e+00 8.25404000e+00 2.00812000e+01	N
atom  7.52198000e+00 7.35921000e+00 2.26592000e+01	N
atom  1.49220000e+00 9.40733000e+00 2.49648000e+01	Si
atom  1.07940000e+00 8.59269000e+00 2.64307000e+01	N
atom  -1.72460000e-01 9.53113000e+00 2.73408000e+01	Si
atom  8.78426000e+00 8.86881000e+00 2.72595000e+01	N
atom  7.48660000e+00 9.41991000e+00 2.61428000e+01	Si
atom  6.72148000e+00 8.17014000e+00 2.53513000e+01	N
atom  6.25590000e+00 9.44340000e+00 2.86895000e+01	Si
atom  4.65019000e+00 9.43213000e+00 2.93762000e+01	N
atom  6.50980000e+00 7.75734000e+00 2.84416000e+01	N
atom  8.19448000e+00 7.44549000e+00 2.79756000e+01	Si
atom  3.25613000e+00 8.45692000e+00 3.35724000e+01	N
atom  2.79916000e+00 9.06146000e+00 3.09365000e+01	N
atom  3.57821000e-01 8.90230000e+00 3.24400000e+01	N
atom  2.08854000e+00 9.25105000e+00 3.25320000e+01	Si
atom  3.95271000e+00 8.01958000e+00 3.01419000e+01	Si
atom  6.02141000e+00 8.05882000e+00 3.36990000e+01	N
atom  7.95684000e+00 8.14208000e+00 3.16550000e+01	N
atom  6.45135000e+00 9.63515000e+00 3.41567000e+01	Si
atom  3.44239000e+00 9.29030000e+00 3.84620000e+01	N
atom  3.00657000e+00 8.29037000e+00 3.52300000e+01	Si
atom  8.31432000e-01 9.06224000e+00 3.77231000e+01	N
atom  4.57941000e-01 7.82584000e+00 3.66203000e+01	Si
atom  4.23154000e+00 7.60819000e+00 3.62594000e+01	N
atom  1.44903000e-01 9.57709000e+00 3.92848000e+01	Si
atom  1.47199000e+00 7.43624000e+00 3.53043000e+01	N
atom  7.72155000e+00 7.46807000e+00 3.70292000e+01	N
atom  6.07836000e+00 9.39591000e+00 3.78369000e+01	N
atom  4.66055000e+00 8.27943000e+00 3.77581000e+01	Si
atom  7.56711000e+00 8.60624000e+00 3.82805000e+01	Si
atom  7.94241000e+00 9.59238000e+00 3.51039000e+01	N
atom  8.54712000e+00 8.03365000e+00 3.56030000e+01	Si
atom  7.54608000e+00 7.61062000e+00 3.97659000e+01	N
atom  3.97717000e+00 1.07923000e+01 9.83117000e-01	N
atom  1.43115000e+00 1.14250000e+01 3.29747000e+00	N
atom  1.37778000e+00 1.15834000e+01 1.52032000e+00	Si
atom  1.45706000e+00 1.01655000e+01 4.62328000e-01	N
atom  1.93607000e+00 1.00351000e+01 4.13058000e+00	Si
atom  4.34170000e+00 1.00146000e+01 2.50155000e+00	Si
atom  4.56762000e+00 1.13078000e+01 3.58609000e+00	N
atom  8.65555000e+00 1.12359000e+01 1.46049000e+00	N
atom  8.33164000e+00 1.08655000e+01 3.07627000e+00	Si
atom  7.23008000e+00 1.20699000e+01 3.73693000e+00	N
atom  6.20645000e-01 1.11586000e+01 6.94188000e+00	N
atom  3.21415000e+00 1.13270000e+01 9.05723000e+00	Si
atom  8.34457000e-01 1.01018000e+01 8.30480000e+00	Si
atom  3.04547000e+00 1.01171000e+01 5.43736000e+00	N
atom  1.59823000e+00 1.09846000e+01 9.59409000e+00	N
atom  3.84133000e+00 9.74781000e+00 9.47776000e+00	N
atom  4.52918000e+00 1.07598000e+01 5.22334000e+00	Si
atom  9.21028000e+00 1.10062000e+01 8.52148000e+00	N
atom  5.00002000e+00 1.18964000e+01 6.39215000e+00	N
atom  6.61763000e+00 1.11258000e+01 6.62408000e+00	Si
atom  6.04200000e+00 9.84426000e+00 5.35835000e+00	N
atom  8.01091000e+00 1.21717000e+01 6.37203000e+00	N
atom  2.37402000e+00 1.03722000e+01 1.22231000e+01	N
atom  1.16135000e+00 1.13344000e+01 1.12361000e+01	Si
atom  3.70442000e+00 1.12046000e+01 1.32284000e+01	Si
atom  3.07249000e+00 1.09920000e+01 1.48420000e+01	N
atom  4.85071000e+00 1.04296000e+01 1.20914000e+01	N
atom  7.68302000e+00 1.04899000e+01 1.06916000e+01	N
atom  6.47176000e+00 1.11120000e+01 1.19519000e+01	Si
atom  7.47054000e+00 1.11052000e+01 1.33754000e+01	N
atom  8.53714000e+00 1.18321000e+01 9.89760000e+00	Si
atom  7.37734000e+00 1.02011000e+01 1.48679000e+01	Si
atom  -3.01565000e-01 1.06260000e+01 1.68011000e+01	Si
atom  4.54410000e+00 9.87440000e+00 1.94586000e+01	N
atom  8.06940000e+00 1.12493000e+01 1.76271000e+01	Si
atom  7.00260000e+00 1.03249000e+01 1.86052000e+01	N
atom  7.32974000e+00 1.14675000e+01 1.60926000e+01	N
atom  5.74356000e+00 1.11485000e+01 1.94896000e+01	Si
atom  9.36878000e+00 1.00493000e+01 1.75247000e+01	N
atom  3.75168000e+00 1.14277000e+01 2.34262000e+01	N
atom  1.10691000e+00 1.10392000e+01 2.28680000e+01	N
atom  2.73427000e+00 1.15743000e+01 2.07506000e+01	N
atom  -1.60558000e-01 1.13804000e+01 2.39672000e+01	Si
atom  2.47914000e+00 1.19576000e+01 2.24542000e+01	Si
atom  -1.27783000e-01 9.94648000e+00 2.09373000e+01	N
atom  2.98585000e+00 9.97427000e+00 2.01244000e+01	Si
atom  -4.24493000e-01 1.14915000e+01 2.00633000e+01	Si
atom  6.36673000e+00 1.18157000e+01 2.38676000e+01	N
atom  6.38051000e+00 1.07032000e+01 2.25211000e+01	Si
atom  9.02336000e+00 1.04695000e+01 2.33945000e+01	Si
atom  5.80778000e+00 1.16310000e+01 2.12226000e+01	N
atom  7.90518000e+00 9.96425000e+00 2.21498000e+01	N
atom  1.05403000e-01 1.11556000e+01 2.78900000e+01	N
atom  7.34532000e-01 1.09723000e+01 2.53724000e+01	N
atom  2.64551000e+00 1.13752000e+01 2.92618000e+01	N
atom  6.39629000e+00 1.02613000e+01 2.71205000e+01	N
atom  6.03932000e+00 1.19079000e+01 2.68420000e+01	Si
atom  7.20342000e+00 1.03289000e+01 2.98088000e+01	N
atom  8.77861000e+00 1.01753000e+01 2.51019000e+01	N
atom  7.37676000e+00 1.20737000e+01 2.96001000e+01	Si
atom  1.63938000e+00 1.09877000e+01 3.24652000e+01	N
atom  -1.42233000e-02 1.06535000e+01 3.21295000e+01	Si
atom  3.68225000e+00 1.05045000e+01 3.02930000e+01	Si
atom  4.30620000e+00 1.15586000e+01 3.15529000e+01	N
atom  2.94264000e+00 1.21074000e+01 3.26046000e+01	Si
atom  6.53697000e+00 1.04560000e+01 3.26125000e+01	N
atom  9.15800000e+00 1.05697000e+01 3.16184000e+01	N
atom  7.61934000e+00 9.78305000e+00 3.14039000e+01	Si
atom  5.92138000e+00 1.20113000e+01 3.20875000e+01	Si
atom  9.10740000e+00 1.06897000e+01 3.47114000e+01	Si
atom  1.73339000e+00 1.15171000e+01 3.78470000e+01	N
atom  3.93663000e+00 1.10611000e+01 3.54314000e+01	Si
atom  4.25650000e+00 1.17552000e+01 3.70493000e+01	N
atom  2.23685000e+00 9.96872000e+00 3.74296000e+01	Si
atom  5.68777000e-02 1.18726000e+01 3.77896000e+01	Si
atom  2.72832000e+00 9.93535000e+00 3.57919000e+01	N
atom  8.97236000e+00 1.12226000e+01 3.76935000e+01	Si
atom  5.90821000e+00 1.09044000e+01 3.69767000e+01	Si
atom  8.76694000e+00 9.85737000e+00 3.88050000e+01	N
atom  5.52429000e+00 1.05094000e+01 3.52814000e+01	N
atom  7.30370000e+00 1.18308000e+01 3.73640000e+01	N
atom  2.35856000e+00 1.30584000e+01 1.28672000e+00	N
atom  4.04919000e+00 1.25078000e+01 1.03510000e+00	Si
atom  1.21091000e-01 1.39319000e+01 3.90927000e+00	N
atom  -6.79552000e-02 1.22954000e+01 3.47626000e+00	Si
atom  9.08431000e+00 1.27590000e+01 7.99984000e-01	Si
atom  5.27274000e+00 1.32743000e+01 2.00976000e+00	N
atom  5.61221000e+00 1.27696000e+01 3.59461000e+00	Si
atom  8.08439000e+00 1.41799000e+01 1.06345000e+00	N
atom  4.91459000e+00 1.39015000e+01 4.73390000e+00	N
atom  8.54845000e+00 1.25728000e+01 4.84764000e+00	Si
atom  6.51479000e+00 1.44715000e+01 1.83092000e+00	Si
atom  1.46631000e+00 1.26950000e+01 6.94076000e+00	Si
atom  2.80690000e+00 1.26511000e+01 7.98388000e+00	N
atom  3.79917000e+00 1.39075000e+01 8.96089000e+00	Si
atom  3.68248000e-01 1.39911000e+01 7.50359000e+00	N
atom  2.38465000e+00 1.35290000e+01 5.62557000e+00	N
atom  4.08128000e+00 1.34200000e+01 6.23432000e+00	Si
atom  4.43368000e+00 1.24940000e+01 9.78056000e+00	N
atom  7.49775000e+00 1.30803000e+01 9.35387000e+00	N
atom  9.13920000e+00 1.41504000e+01 5.03830000e+00	N
atom  9.37931000e+00 1.23300000e+01 7.43847000e+00	Si
atom  1.07817000e+00 1.31283000e+01 1.13898000e+01	N
atom  4.23279000e+00 1.28335000e+01 1.35071000e+01	N
atom  2.14036000e-01 1.39407000e+01 1.38849000e+01	N
atom  -2.43865000e-01 1.39170000e+01 1.22425000e+01	Si
atom  8.83251000e+00 1.41012000e+01 1.29312000e+01	N
atom  6.33960000e+00 1.28412000e+01 1.17639000e+01	N
atom  6.76763000e+00 1.34529000e+01 1.43076000e+01	N
atom  5.59748000e+00 1.37599000e+01 1.29619000e+01	Si
atom  8.21904000e+00 1.26976000e+01 1.36585000e+01	Si
atom  5.94543000e+00 1.33032000e+01 1.01395000e+01	Si
atom  3.65300000e+00 1.26737000e+01 1.50950000e+01	Si
atom  1.48313000e+00 1.33184000e+01 1.68104000e+01	Si
atom  2.61714000e+00 1.30916000e+01 1.81614000e+01	N
atom  2.37125000e+00 1.38021000e+01 1.54015000e+01	N
atom  4.32372000e+00 1.36005000e+01 1.78975000e+01	Si
atom  4.09215000e-01 1.20796000e+01 1.61981000e+01	N
atom  2.35982000e+00 1.29872000e+01 1.98191000e+01	Si
atom  8.46216000e+00 1.26441000e+01 1.86218000e+01	N
atom  8.38325000e+00 1.41795000e+01 1.79219000e+01	Si
atom  4.84257000e+00 1.29816000e+01 1.63678000e+01	N
atom  5.40119000e+00 1.28011000e+01 1.90389000e+01	N
atom  6.49371000e+00 1.29384000e+01 1.59111000e+01	Si
atom  7.05079000e+00 1.44004000e+01 1.68176000e+01	N
atom  1.98752000e+00 1.35802000e+01 2.26387000e+01	N
atom  4.38863000e-01 1.39548000e+01 2.31078000e+01	Si
atom  3.68564000e+00 1.40350000e+01 2.07128000e+01	N
atom  5.83719000e-01 1.28659000e+01 1.99491000e+01	N
atom  4.67441000e+00 1.40311000e+01 2.33137000e+01	N
atom  4.80907000e+00 1.25678000e+01 2.41560000e+01	Si
atom  5.32887000e+00 1.33316000e+01 2.06862000e+01	Si
atom  9.10436000e+00 1.35616000e+01 2.11677000e+01	N
atom  7.64346000e+00 1.27215000e+01 2.45854000e+01	Si
atom  8.82733000e+00 1.21258000e+01 2.35475000e+01	N
atom  7.42375000e+00 1.44030000e+01 2.42802000e+01	N
atom  9.66570000e+00 1.25228000e+01 1.98551000e+01	Si
atom  2.09962000e+00 1.29996000e+01 2.70360000e+01	N
atom  2.09434000e+00 1.28861000e+01 2.87686000e+01	Si
atom  3.56105000e+00 1.37698000e+01 2.64368000e+01	Si
atom  5.08889000e-01 1.31533000e+01 2.96210000e+01	N
atom  5.93342000e-01 1.22339000e+01 2.66206000e+01	Si
atom  3.09344000e+00 1.40902000e+01 2.95457000e+01	N
atom  8.94627000e+00 1.26421000e+01 2.90581000e+01	N
atom  7.56300000e+00 1.25089000e+01 2.63023000e+01	N
atom  6.15536000e+00 1.27494000e+01 2.86247000e+01	N
atom  4.72777000e+00 1.25375000e+01 2.58864000e+01	N
atom  8.57211000e+00 1.33304000e+01 2.74409000e+01	Si
atom  2.52618000e+00 1.37310000e+01 3.23796000e+01	N
atom  7.58659000e-01 1.32222000e+01 3.43820000e+01	N
atom  1.88236000e+00 1.43701000e+01 3.38532000e+01	Si
atom  3.64824000e+00 1.21637000e+01 3.41666000e+01	N
atom  4.56990000e+00 1.36609000e+01 3.42063000e+01	Si
atom  5.68365000e+00 1.35098000e+01 3.28538000e+01	N
atom  7.36615000e+00 1.25081000e+01 3.13151000e+01	N
atom  8.76118000e+00 1.22079000e+01 3.22720000e+01	Si
atom  8.73243000e+00 1.21676000e+01 3.39670000e+01	N
atom  8.92975000e+00 1.36139000e+01 3.48517000e+01	Si
atom  4.19098000e+00 1.32899000e+01 3.93671000e+01	N
atom  3.16058000e+00 1.25247000e+01 3.81262000e+01	Si
atom  2.42629000e+00 1.40496000e+01 3.78242000e+01	N
atom  -2.31860000e-01 1.35463000e+01 3.78191000e+01	N
atom  8.45238000e+00 1.40935000e+01 3.64931000e+01	N
atom  5.77722000e+00 1.38907000e+01 3.54002000e+01	N
atom  7.84365000e+00 1.33415000e+01 3.79689000e+01	Si
atom  9.17956000e+00 1.25588000e+01 3.89193000e+01	N
atom  2.25049000e+00 1.53455000e+01 3.02594000e+00	N
atom  2.79673000e-01 1.49627000e+01 7.63655000e-01	N
atom  1.91346000e+00 1.46982000e+01 1.35675000e+00	Si
atom  2.61274000e+00 1.57971000e+01 1.38808000e-01	N
atom  1.61129000e+00 1.46546000e+01 4.51850000e+00	Si
atom  2.44999000e-01 1.66648000e+01 6.60059000e-02	Si
atom  4.66874000e+00 1.67373000e+01 3.67241000e+00	N
atom  9.22207000e+00 1.54885000e+01 1.13971000e+00	Si
atom  8.46290000e+00 1.54285000e+01 4.06196000e+00	Si
atom  5.81885000e+00 1.58825000e+01 9.95002000e-01	N
atom  6.87492000e+00 1.50242000e+01 3.47443000e+00	N
atom  5.55908000e+00 1.54573000e+01 4.55069000e+00	Si
atom  1.18587000e+00 1.59701000e+01 5.62156000e+00	N
atom  3.41823000e-01 1.56612000e+01 7.07829000e+00	Si
atom  4.51004000e+00 1.45423000e+01 7.48784000e+00	N
atom  7.38368000e+00 1.58030000e+01 8.06731000e+00	N
atom  5.56844000e+00 1.64345000e+01 6.06066000e+00	N
atom  5.68036000e+00 1.58299000e+01 7.71742000e+00	Si
atom  8.27745000e+00 1.45919000e+01 8.92382000e+00	Si
atom  2.42012000e+00 1.53084000e+01 1.28396000e+01	N
atom  1.92059000e-01 1.54882000e+01 1.15367000e+01	N
atom  1.55100000e+00 1.48788000e+01 1.43142000e+01	Si
atom  3.68089000e+00 1.64251000e+01 1.28494000e+01	Si
atom  1.81814000e+00 1.48209000e+01 1.12533000e+01	Si
atom  4.23460000e+00 1.61984000e+01 1.00806000e+01	Si
atom  2.82411000e+00 1.50313000e+01 9.91655000e+00	N
atom  5.26480000e+00 1.55576000e+01 1.28279000e+01	N
atom  8.83081000e+00 1.56757000e+01 1.35594000e+01	Si
atom  9.04090000e+00 1.53025000e+01 1.03077000e+01	N
atom  7.49967000e+00 1.59668000e+01 1.45459000e+01	N
atom  6.53137000e+00 1.66213000e+01 1.32259000e+01	Si
atom  5.30273000e+00 1.48610000e+01 9.78358000e+00	N
atom  8.01441000e+00 1.68191000e+01 1.24287000e+01	N
atom  4.25860000e-01 1.46162000e+01 1.71060000e+01	N
atom  3.75077000e-01 1.62643000e+01 1.68077000e+01	Si
atom  1.06696000e+00 1.63062000e+01 1.51926000e+01	N
atom  4.11858000e+00 1.53343000e+01 1.83224000e+01	N
atom  3.36163000e+00 1.54669000e+01 1.98168000e+01	Si
atom  1.52314000e+00 1.54588000e+01 1.99658000e+01	N
atom  6.77727000e+00 1.60231000e+01 1.61003000e+01	Si
atom  8.19367000e+00 1.53697000e+01 1.91376000e+01	N