lattice_vector  3.99267063e+01 0.00000000e+00 0.00000000e+00
lattice_vector  2.44480566e-15 3.99267063e+01 0.00000000e+00
lattice_vector  2.44480566e-15 2.44480566e-15 3.99267063e+01
atom  6.56528000e-01 3.21385000e+00 3.37784000e+00	Si
atom  1.30513000e+00 1.86141000e+00 4.21063000e+00	N
atom  9.12319000e-01 5.07035000e+00 7.58174000e-01	Si
atom  1.49853000e+00 3.99876000e+00 2.11964000e+00	N
atom  6.96647000e-01 4.63572000e+00 4.48977000e+00	N
atom  1.42535000e+00 7.42119000e+00 3.87466000e+00	N
atom  6.44860000e-01 9.46231000e+00 1.63899000e+00	N
atom  1.33104000e+00 6.73942000e+00 8.95362000e-01	N
atom  3.10791000e-01 8.56220000e+00 3.08535000e+00	Si
atom  1.24490000e-01 6.28479000e+00 4.36173000e+00	Si
atom  5.44110000e-01 8.17532000e+00 3.02894000e-01	Si
atom  7.45283000e-02 9.62013000e+00 4.48380000e+00	N
atom  1.17732000e+00 3.08440000e+00 9.32220000e+00	N
atom  4.61740000e-01 1.14034000e+00 5.59679000e+00	Si
atom  8.13017000e-01 3.24264000e+00 7.66997000e+00	Si
atom  -1.28779000e-01 1.98487000e+00 6.94075000e+00	N
atom  -2.13389000e-01 4.62856000e+00 7.54299000e+00	N
atom  -3.92623000e-01 7.45215000e+00 8.62323000e+00	N
atom  -1.25805000e-01 6.90256000e+00 6.00178000e+00	N
atom  2.74261000e-01 6.19690000e+00 7.54922000e+00	Si
atom  1.77367000e-01 8.65875000e+00 6.04720000e+00	Si
atom  1.82134000e+00 6.29295000e+00 8.32493000e+00	N
atom  1.22965000e+00 1.14706000e+00 1.11331000e+01	N
atom  4.49495000e-01 3.80499000e+00 1.07188000e+01	Si
atom  1.47109000e+00 4.19675000e+00 1.20343000e+01	N
atom  -2.10672000e-02 3.84028000e+00 1.40875000e+01	N
atom  1.74077000e+00 4.17581000e+00 1.39949000e+01	Si
atom  -4.23875000e-01 1.24470000e+00 1.18219000e+01	Si
atom  6.59336000e-02 5.49055000e+00 1.04545000e+01	N
atom  6.70490000e-01 5.86047000e+00 1.22007000e+01	Si
atom  1.26095000e+00 8.69658000e+00 1.21897000e+01	Si
atom  1.32996000e+00 5.90317000e+00 1.39858000e+01	N
atom  1.63298000e+00 7.14443000e+00 1.13697000e+01	N
atom  1.74705000e+00 8.69216000e+00 1.38018000e+01	N
atom  8.58454000e-01 6.87357000e+00 9.74145000e+00	Si
atom  1.40892000e+00 8.18125000e-01 1.49718000e+01	N
atom  1.25754000e+00 2.18760000e+00 1.78193000e+01	N
atom  1.22636000e+00 2.20169000e+00 1.59919000e+01	Si
atom  1.93575000e+00 7.17997000e+00 1.49231000e+01	Si
atom  7.54573000e-01 9.52247000e+00 1.82254000e+01	N
atom  1.71168000e+00 8.10003000e+00 1.76431000e+01	Si
atom  1.40030000e+00 6.95857000e+00 1.89883000e+01	N
atom  8.83846000e-01 7.51991000e+00 1.62516000e+01	N
atom  -9.95913000e-02 1.01985000e+01 1.68759000e+01	Si
atom  -7.37698000e-02 6.96127000e+00 1.97653000e+01	Si
atom  8.94593000e-01 1.46584000e+00 2.21406000e+01	N
atom  2.16186000e-01 3.95627000e+00 2.28669000e+01	N
atom  1.37514000e+00 3.31262000e+00 2.01569000e+01	N
atom  -2.48418000e-01 3.88902000e+00 2.00899000e+01	Si
atom  -8.32851000e-02 3.97040000e+00 2.46117000e+01	Si
atom  7.17798000e-01 5.41656000e+00 2.20720000e+01	Si
atom  -2.34633000e-01 5.54058000e+00 2.06096000e+01	N
atom  2.88748000e-01 8.26510000e+00 2.24687000e+01	Si
atom  6.39567000e-02 6.65528000e+00 2.31065000e+01	N
atom  4.99623000e-04 8.37683000e+00 2.07045000e+01	N
atom  1.85834000e-01 9.83348000e+00 1.98450000e+01	Si
atom  1.84992000e+00 3.82486000e+00 2.62178000e+01	Si
atom  9.13254000e-01 8.21390000e-01 2.88793000e+01	Si
atom  -1.53486000e-01 4.40515000e+00 2.83986000e+01	Si
atom  1.49864000e+00 3.92893000e+00 2.79243000e+01	N
atom  5.49901000e-01 2.73945000e+00 2.56741000e+01	N
atom  -4.27605000e-01 1.31274000e+00 2.54202000e+01	Si
atom  9.93858000e-01 5.17543000e+00 2.54566000e+01	N
atom  -2.05990000e-01 8.49151000e+00 2.96028000e+01	N
atom  5.60490000e-01 7.10076000e+00 2.88505000e+01	Si
atom  1.65578000e+00 1.01799000e+01 2.68670000e+01	N
atom  1.27888000e+00 7.24166000e+00 2.73214000e+01	N
atom  9.09249000e-01 6.90507000e+00 2.55856000e+01	Si
atom  1.78639000e+00 1.00933000e+01 2.51159000e+01	Si
atom  1.78246000e+00 8.35940000e+00 2.50552000e+01	N
atom  1.23932000e+00 4.69416000e+00 3.08025000e+01	Si
atom  -1.59737000e-01 3.84529000e+00 3.00623000e+01	N
atom  3.84472000e-01 4.72430000e+00 3.22918000e+01	N
atom  -3.30839000e-01 1.90327000e+00 3.19595000e+01	N
atom  7.41609000e-01 1.91156000e+00 3.47780000e+01	N
atom  3.22595000e-01 8.66072000e+00 3.12548000e+01	Si
atom  4.78914000e-01 5.90553000e+00 3.36018000e+01	Si
atom  -2.35417000e-01 9.60443000e+00 3.39381000e+01	Si
atom  -1.66726000e-01 7.24912000e+00 3.21552000e+01	N
atom  1.47888000e+00 6.21974000e+00 3.00794000e+01	N
atom  1.65196000e+00 9.79389000e+00 3.11135000e+01	N
atom  4.49814000e-01 4.62229000e+00 3.50643000e+01	N
atom  1.52914000e+00 5.50901000e-01 3.54719000e+01	Si
atom  7.43853000e-01 2.99803000e+00 3.86299000e+01	Si
atom  1.49064000e+00 3.31343000e+00 3.54968000e+01	Si
atom  4.98279000e-01 1.38038000e+00 3.91496000e+01	N
atom  1.73665000e+00 4.20026000e+00 3.94466000e+01	N
atom  1.55447000e+00 2.75673000e+00 3.71453000e+01	N
atom  3.28440000e-01 8.25568000e+00 3.49609000e+01	N
atom  1.82792000e+00 8.96893000e+00 3.93905000e+01	N
atom  4.88627000e-01 1.23852000e+01 5.63267000e-01	N
atom  9.33629000e-01 1.38053000e+01 1.47106000e+00	Si
atom  -2.09284000e-01 1.09950000e+01 1.33342000e+00	Si
atom  -1.01470000e-01 1.13545000e+01 4.39704000e+00	Si
atom  -5.67137000e-01 1.45994000e+01 1.72042000e+00	N
atom  1.32301000e+00 1.74544000e+01 1.85318000e+00	N
atom  5.72505000e-01 1.89067000e+01 4.13766000e+00	N
atom  -3.54891000e-01 1.76916000e+01 1.32112000e+00	Si
atom  1.25932000e+00 1.21790000e+01 4.84148000e+00	N
atom  -1.16781000e-01 1.21952000e+01 9.54012000e+00	Si
atom  6.14847000e-01 1.16926000e+01 7.97478000e+00	N
atom  -5.73544000e-02 1.47524000e+01 8.20339000e+00	Si
atom  1.02796000e+00 1.26125000e+01 6.45274000e+00	Si
atom  4.02087000e-01 1.42408000e+01 6.64503000e+00	N
atom  -4.28823000e-01 1.39029000e+01 9.71390000e+00	N
atom  3.18714000e-01 2.01651000e+01 8.97620000e+00	Si
atom  3.25167000e-02 1.75742000e+01 7.66740000e+00	Si
atom  1.53220000e+00 1.51230000e+01 8.85333000e+00	N
atom  1.05165000e+00 1.68558000e+01 6.48139000e+00	N
atom  6.71912000e-01 1.84557000e+01 8.92248000e+00	N
atom  9.21977000e-01 1.54591000e+01 5.46837000e+00	Si
atom  1.34171000e+00 1.13459000e+01 1.15256000e+01	Si
atom  1.36279000e+00 1.17141000e+01 1.32429000e+01	N
atom  1.00367000e+00 1.47684000e+01 1.06184000e+01	Si
atom  -1.84784000e-02 1.27519000e+01 1.35891000e+01	Si
atom  1.68863000e+00 1.23658000e+01 1.01674000e+01	N
atom  -3.17745000e-01 1.13499000e+01 1.10541000e+01	N
atom  -3.70349000e-02 1.38333000e+01 1.22338000e+01	N
atom  1.38175000e+00 1.76552000e+01 1.02260000e+01	Si
atom  3.10824000e-01 1.64815000e+01 1.09352000e+01	N
atom  1.85204000e+00 1.88054000e+01 1.15071000e+01	N
atom  -3.16461000e-01 1.60817000e+01 1.47142000e+01	N
atom  1.06070000e-01 1.48380000e+01 1.75448000e+01	N
atom  9.75218000e-01 1.24569000e+01 1.63469000e+01	Si
atom  2.68262000e-01 1.34583000e+01 1.51487000e+01	N
atom  9.74697000e-01 1.07874000e+01 1.56610000e+01	N
atom  -1.87907000e-01 1.32024000e+01 1.97097000e+01	N
atom  -3.01947000e-01 1.18669000e+01 1.73908000e+01	N
atom  1.26580000e+00 1.67053000e+01 1.48464000e+01	Si
atom  3.47370000e-01 1.75814000e+01 1.94125000e+01	Si
atom  1.59229000e+00 1.56957000e+01 1.76398000e+01	Si
atom  1.57855000e+00 1.73762000e+01 1.82322000e+01	N
atom  1.12985000e+00 1.82104000e+01 1.58586000e+01	N
atom  8.83908000e-01 1.09739000e+01 2.09330000e+01	N
atom  8.77435000e-01 1.43234000e+01 2.41751000e+01	N
atom  1.26635000e+00 1.27029000e+01 2.05758000e+01	Si
atom  7.30095000e-01 1.11555000e+01 2.43283000e+01	N
atom  1.55806000e+00 1.41161000e+01 2.16705000e+01	N
atom  7.94835000e-01 1.83810000e+01 2.23748000e+01	Si
atom  1.06838000e+00 1.57457000e+01 2.13314000e+01	Si
atom  4.45235000e-01 1.87133000e+01 2.06240000e+01	N
atom  4.04686000e-01 1.66674000e+01 2.26440000e+01	N
atom  -1.97024000e-01 1.57364000e+01 2.40324000e+01	Si
atom  2.16197000e-01 1.59648000e+01 1.99557000e+01	N
atom  8.28719000e-01 1.27884000e+01 2.50005000e+01	Si
atom  4.98787000e-01 1.28914000e+01 2.85076000e+01	N
atom  1.55422000e+00 1.17245000e+01 2.76017000e+01	Si
atom  -5.47313000e-01 1.38587000e+01 2.74718000e+01	Si
atom  3.14914000e-02 1.84177000e+01 2.76387000e+01	N
atom  9.37714000e-02 1.67407000e+01 2.53093000e+01	N
atom  -1.71931000e-01 1.98094000e+01 2.66102000e+01	Si
atom  3.17717000e-01 1.68106000e+01 2.69632000e+01	Si
atom  -2.74590000e-01 1.83115000e+01 2.93381000e+01	Si
atom  1.35262000e+00 1.37742000e+01 3.35389000e+01	N
atom  7.21167000e-01 1.10200000e+01 3.19667000e+01	Si
atom  1.01181000e+00 1.24191000e+01 3.11199000e+01	N
atom  1.15984000e+00 1.40637000e+01 3.18928000e+01	Si
atom  1.17988000e+00 1.06650000e+01 3.35972000e+01	N
atom  -2.08307000e-01 1.40807000e+01 3.42365000e+01	Si
atom  -3.22877000e-01 1.50121000e+01 3.17808000e+01	N
atom  3.43146000e-01 1.91181000e+01 3.36586000e+01	Si
atom  6.17739000e-01 1.76939000e+01 3.26088000e+01	N
atom  1.13467000e+00 1.75546000e+01 2.99848000e+01	N
atom  -3.15649000e-01 1.58139000e+01 3.43998000e+01	N
atom  1.59817000e+00 2.03323000e+01 3.37675000e+01	N
atom  1.90901000e+00 1.80118000e+01 3.14283000e+01	Si
atom  -3.36293000e-02 1.16823000e+01 3.61146000e+01	Si
atom  3.01641000e-01 1.28216000e+01 3.88532000e+01	Si
atom  1.65851000e+00 1.12604000e+01 3.61222000e+01	N
atom  1.81758000e+00 1.31879000e+01 3.82303000e+01	N
atom  -4.58003000e-01 1.33265000e+01 3.57406000e+01	N
atom  1.22500000e-01 1.59102000e+01 3.81208000e+01	Si
atom  -3.69260000e-01 1.68060000e+01 3.96181000e+01	N
atom  1.10325000e+00 1.95675000e+01 3.64496000e+01	Si
atom  4.07973000e-01 1.85134000e+01 3.52773000e+01	N
atom  1.23770000e+00 1.60912000e+01 3.68350000e+01	N
atom  7.74978000e-02 1.68245000e+01 3.57425000e+01	Si
atom  6.70990000e-01 2.01780000e+01 3.93640000e+01	Si
atom  3.15049000e-01 1.92245000e+01 3.79649000e+01	N
atom  1.04888000e+00 2.25744000e+01 3.25533000e+00	Si
atom  1.93719000e-02 2.12339000e+01 2.58151000e+00	N
atom  1.32527000e+00 2.16420000e+01 4.68143000e+00	N
atom  -2.05731000e-01 2.37434000e+01 3.28296000e+00	N
atom  -8.31293000e-02 2.50573000e+01 4.38618000e+00	Si
atom  5.71088000e-02 2.05480000e+01 4.14902000e+00	Si
atom  1.59867000e+00 2.52095000e+01 4.71719000e+00	N
atom  1.09079000e+00 2.58844000e+01 1.65405000e-01	Si
atom  3.27124000e-01 2.91259000e+01 3.61972000e+00	N
atom  1.00144000e+00 3.00453000e+01 8.51818000e-01	N
atom  1.75493000e+00 2.87132000e+01 6.46575000e-02	Si
atom  4.47296000e-01 2.74763000e+01 -6.93769000e-03	N
atom  1.85243000e+00 2.53755000e+01 1.63816000e+00	N
atom  5.74906000e-01 2.07814000e+01 7.33367000e+00	N
atom  1.81327000e+00 2.10424000e+01 6.21917000e+00	Si
atom  9.22743000e-01 2.51858000e+01 7.70390000e+00	N
atom  6.99360000e-01 2.76504000e+01 9.41616000e+00	N
atom  1.65549000e+00 2.64955000e+01 8.61714000e+00	Si
atom  1.49592000e+00 2.11686000e+01 1.29320000e+01	N
atom  6.17478000e-01 2.11085000e+01 1.02823000e+01	N
atom  5.37390000e-01 2.49342000e+01 1.36110000e+01	N
atom  -1.25232000e-03 2.16914000e+01 1.36656000e+01	Si
atom  -2.62489000e-01 2.45758000e+01 1.21568000e+01	Si
atom  5.05740000e-01 2.53651000e+01 1.07555000e+01	N
atom  -4.02470000e-01 2.28547000e+01 1.22980000e+01	N
atom  2.40988000e-01 2.98893000e+01 1.11326000e+01	N
atom  1.38899000e+00 2.91533000e+01 1.41039000e+01	Si
atom  8.85979000e-01 2.75388000e+01 1.45308000e+01	N
atom  1.75556000e+00 2.61811000e+01 1.38930000e+01	Si
atom  1.38581000e+00 2.90807000e+01 1.00717000e+01	Si
atom  6.78814000e-02 3.01819000e+01 1.36569000e+01	N
atom  1.55693000e+00 2.41719000e+01 1.73573000e+01	Si
atom  4.32637000e-01 2.50064000e+01 1.63551000e+01	N
atom  -1.27430000e-01 2.19729000e+01 1.67639000e+01	Si
atom  1.30949000e+00 2.24842000e+01 1.75677000e+01	N
atom  -1.89115000e-02 2.26396000e+01 1.51153000e+01	N
atom  1.17304000e+00 2.53565000e+01 1.86256000e+01	N
atom  3.03660000e-01 2.94382000e+01 1.83149000e+01	N
atom  -2.07603000e-01 2.59655000e+01 1.77201000e+01	Si
atom  1.41413000e+00 2.38831000e+01 2.20414000e+01	N
atom  -9.13344000e-02 2.46992000e+01 2.20743000e+01	Si
atom  2.27208000e-01 2.76476000e+01 2.07859000e+01	Si
atom  2.83006000e-01 2.65290000e+01 2.21107000e+01	N
atom  1.31657000e+00 2.69498000e+01 2.35352000e+01	Si
atom  7.73116000e-01 2.84750000e+01 2.44214000e+01	N
atom  1.00250000e+00 2.55836000e+01 2.45569000e+01	N
atom  1.87841000e+00 2.79183000e+01 2.01663000e+01	N
atom  1.44126000e+00 2.42867000e+01 2.56484000e+01	Si
atom  1.57214000e-01 2.13706000e+01 2.90737000e+01	Si
atom  -2.13502000e-01 2.38731000e+01 2.59477000e+01	N
atom  7.59335000e-01 2.04656000e+01 2.52755000e+01	N
atom  1.82823000e+00 2.16485000e+01 2.94081000e+01	N
atom  1.86681000e+00 2.50935000e+01 2.70928000e+01	N
atom  -4.47286000e-01 2.12693000e+01 2.74851000e+01	N
atom  1.39396000e+00 2.66050000e+01 2.78960000e+01	Si
atom  8.53748000e-02 2.63019000e+01 2.89962000e+01	N
atom  1.19437000e+00 2.81714000e+01 2.70459000e+01	N
atom  1.06026000e-01 2.97171000e+01 2.86013000e+01	N
atom  1.64482000e+00 2.90938000e+01 2.86160000e+01	Si
atom  1.21905000e+00 2.20071000e+01 3.37367000e+01	Si
atom  1.13429000e+00 2.22501000e+01 3.19794000e+01	N
atom  9.27547000e-01 2.51194000e+01 3.42634000e+01	N
atom  -4.14072000e-01 2.27695000e+01 3.13810000e+01	Si
atom  8.56481000e-01 2.70324000e+01 3.04492000e+01	Si
atom  -7.31765000e-02 2.81569000e+01 3.12995000e+01	N
atom  1.51441000e+00 2.59730000e+01 3.16404000e+01	N
atom  -2.96283000e-01 3.01897000e+01 3.38675000e+01	N
atom  7.92556000e-02 2.47419000e+01 3.91566000e+01	N
atom  1.22383000e-01 2.17676000e+01 3.92125000e+01	N
atom  9.20617000e-01 2.13071000e+01 3.62720000e+01	N
atom  7.70187000e-01 2.32640000e+01 3.84203000e+01	Si
atom  1.24698000e+00 2.51978000e+01 3.60061000e+01	Si
atom  7.81046000e-01 2.93394000e+01 3.72892000e+01	Si
atom  -2.69741000e-01 2.58165000e+01 3.66299000e+01	N
atom  1.11912000e+00 2.84093000e+01 3.58910000e+01	N
atom  -3.68556000e-01 2.74293000e+01 3.60798000e+01	Si
atom  1.73693000e-01 3.33585000e+01 3.28464000e+00	Si
atom  1.11710000e+00 3.19464000e+01 2.86270000e+00	N
atom  2.67729000e-01 3.49049000e+01 2.50332000e+00	N
atom  3.09913000e-01 3.04232000e+01 2.38833000e+00	Si
atom  8.25359000e-01 3.35765000e+01 4.91418000e+00	N
atom  4.44168000e-01 3.84825000e+01 2.65054000e+00	Si
atom  1.27511000e+00 3.73826000e+01 1.53206000e+00	N
atom  -8.12684000e-02 3.99105000e+01 1.86548000e+00	N
atom  8.44336000e-01 4.00650000e+01 3.79736000e-01	Si
atom  1.58624000e+00 3.89400000e+01 3.81911000e+00	N
atom  1.70744000e+00 3.57638000e+01 2.14011000e+00	Si
atom  4.97992000e-01 3.72383000e+01 -7.26192000e-02	Si
atom  -2.71680000e-01 3.23669000e+01 9.01975000e+00	N
atom  9.43007000e-01 3.31837000e+01 8.12600000e+00	Si
atom  3.76835000e-01 3.45928000e+01 7.31195000e+00	N
atom  1.34060000e+00 3.04829000e+01 7.18201000e+00	Si
atom  1.80905000e+00 3.21421000e+01 6.97613000e+00	N
atom  1.47807000e+00 3.04783000e+01 8.98904000e+00	N
atom  -3.58670000e-01 3.06296000e+01 9.07001000e+00	Si
atom  -3.56351000e-01 3.03652000e+01 7.29182000e+00	N
atom  1.83467000e+00 3.87483000e+01 8.32429000e+00	N
atom  9.87140000e-01 3.67950000e+01 5.82908000e+00	N
atom  1.67944000e+00 3.56797000e+01 7.06566000e+00	Si
atom  9.17602000e-01 3.26316000e+01 1.36781000e+01	N
atom  4.00084000e-01 3.12120000e+01 1.22554000e+01	Si
atom  -1.10340000e-01 3.37866000e+01 1.28847000e+01	Si
atom  8.77214000e-01 3.50095000e+01 1.20392000e+01	N
atom  8.72670000e-01 3.89320000e+01 1.28847000e+01	N
atom  6.98009000e-01 3.74060000e+01 1.05093000e+01	N
atom  -9.79862000e-02 3.59221000e+01 1.10143000e+01	Si
atom  7.50053000e-01 3.91791000e+01 1.46143000e+01	Si
atom  -2.33261000e-01 3.83873000e+01 1.16652000e+01	Si
atom  3.09409000e-01 3.19132000e+01 1.65823000e+01	N
atom  1.37264000e+00 3.46582000e+01 1.76041000e+01	N
atom  1.09058000e+00 3.21370000e+01 1.89519000e+01	N
atom  -1.01802000e-01 3.10523000e+01 1.81121000e+01	Si
atom  1.30374000e+00 3.17122000e+01 1.51799000e+01	Si
atom  1.52082000e+00 3.29895000e+01 1.73368000e+01	Si
atom  -2.68253000e-01 3.50115000e+01 1.77645000e+01	Si
atom  1.10956000e+00 3.76362000e+01 1.53355000e+01	N
atom  6.20273000e-01 3.90895000e+01 1.78615000e+01	N
atom  9.46641000e-01 3.31303000e+01 2.38017000e+01	N
atom  4.19855000e-01 3.30803000e+01 2.02062000e+01	Si
atom  1.56607000e+00 3.37588000e+01 2.12701000e+01	N
atom  1.73194000e-01 3.05345000e+01 2.18581000e+01	Si
atom  1.80696000e+00 3.10064000e+01 2.15948000e+01	N
atom  1.46700000e+00 3.45689000e+01 2.47214000e+01	Si
atom  9.21910000e-01 3.52432000e+01 2.20122000e+01	Si
atom  4.41948000e-01 3.79750000e+01 2.08683000e+01	Si
atom  6.48210000e-01 3.83847000e+01 2.26220000e+01	N
atom  1.28906000e+00 3.58357000e+01 2.35858000e+01	N
atom  5.22362000e-01 3.73635000e+01 2.40951000e+01	Si
atom  1.18039000e+00 3.99859000e+01 2.31319000e+01	Si
atom  1.44335000e+00 3.64750000e+01 2.08965000e+01	N
atom  1.61724000e+00 3.89834000e+01 2.01676000e+01	N
atom  -1.92975000e-01 3.35196000e+01 2.67789000e+01	Si
atom  7.85203000e-01 3.21663000e+01 2.73905000e+01	N
atom  2.49448000e-01 3.50257000e+01 2.58879000e+01	N
atom  -2.75848000e-01 3.14041000e+01 2.86807000e+01	Si
atom  1.09439000e+00 3.75687000e+01 2.57807000e+01	N
atom  7.93798000e-01 4.00994000e+01 2.48327000e+01	N
atom  4.92555000e-01 3.97701000e+01 2.74569000e+01	N
atom  5.25579000e-01 3.69263000e+01 2.84455000e+01	N
atom  1.01878000e+00 3.62552000e+01 2.69318000e+01	Si
atom  1.48111000e+00 3.92086000e+01 2.61990000e+01	Si
atom  8.15448000e-01 3.14059000e+01 3.39417000e+01	Si
atom  4.44784000e-01 3.46036000e+01 3.10622000e+01	N
atom  2.84186000e-01 3.29853000e+01 3.17227000e+01	Si
atom  1.48689000e+00 3.21669000e+01 3.25532000e+01	N
atom  -1.00493000e-01 3.23297000e+01 3.01484000e+01	N
atom  1.49721000e+00 3.58943000e+01 3.16490000e+01	Si
atom  7.84792000e-01 3.98373000e+01 3.03318000e+01	N
atom  1.54733000e+00 3.76426000e+01 3.19639000e+01	N
atom  4.80145000e-01 3.76565000e+01 3.44347000e+01	N
atom  1.82314000e+00 3.53626000e+01 3.33980000e+01	N
atom  1.84359000e-01 3.25953000e+01 3.49867000e+01	N
atom  6.75216000e-01 3.09950000e+01 3.73222000e+01	N
atom  1.00350000e+00 3.25302000e+01 3.65126000e+01	Si
atom  2.40346000e-02 3.34236000e+01 3.76071000e+01	N
atom  2.07656000e-01 3.51702000e+01 3.76010000e+01	Si
atom  7.96929000e-01 3.59261000e+01 3.46808000e+01	Si
atom  1.00364000e+00 3.57968000e+01 3.90621000e+01	N
atom  2.85367000e-01 3.96157000e+01 3.63931000e+01	N
atom  1.34426000e+00 3.55341000e+01 3.63360000e+01	N
atom  -2.11226000e-01 4.00685000e+01 3.79813000e+01	Si
atom  2.52576000e-01 3.87748000e+01 3.91596000e+01	N
atom  3.40086000e+00 3.91759000e+00 4.12175000e+00	N
atom  3.16807000e+00 4.20269000e+00 2.41287000e+00	Si
atom  3.90716000e+00 1.03819000e+00 3.70687000e+00	N
atom  2.38926000e+00 4.53823000e-01 4.28250000e+00	Si
atom  4.23308000e+00 3.64231000e+00 1.19396000e+00	N
atom  2.32507000e+00 9.80919000e+00 9.57856000e-01	Si
atom  2.91905000e+00 7.02701000e+00 1.30347000e+00	Si
atom  3.23900000e+00 8.65743000e+00 1.88667000e+00	N
atom  3.39012000e+00 5.93200000e+00 2.55151000e+00	N
atom  4.10913000e+00 7.74245000e+00 4.40833000e+00	N
atom  3.96741000e+00 5.95767000e+00 4.20776000e+00	Si
atom  3.78182000e+00 3.09623000e+00 7.42212000e+00	Si
atom  3.60485000e+00 1.89623000e+00 8.66207000e+00	N
atom  2.17830000e+00 4.37039000e+00 5.36669000e+00	Si
atom  2.22629000e+00 3.47888000e+00 6.77464000e+00	N
atom  1.94357000e+00 3.42192000e-01 6.05383000e+00	N
atom  1.88238000e+00 8.69124000e+00 6.38001000e+00	N
atom  3.27626000e+00 6.04843000e+00 7.49507000e+00	Si
atom  2.85697000e+00 5.97114000e+00 5.78851000e+00	N
atom  3.29862000e+00 9.06167000e+00 7.31424000e+00	Si
atom  2.88513000e+00 1.01166000e+01 8.72166000e+00	N
atom  2.54646000e+00 7.64811000e+00 5.14858000e+00	Si
atom  3.14988000e+00 3.98061000e+00 1.18813000e+01	Si
atom  3.53849000e+00 4.22335000e+00 1.34812000e+01	N
atom  3.49503000e+00 2.48953000e+00 1.10629000e+01	N
atom  2.32652000e+00 1.90423000e+00 9.94384000e+00	Si
atom  3.79758000e+00 5.25961000e+00 1.07961000e+01	N
atom  3.55102000e+00 9.67206000e+00 1.02776000e+01	Si
atom  3.47496000e+00 6.93707000e+00 1.13557000e+01	Si
atom  2.12678000e+00 9.84689000e+00 1.13446000e+01	N
atom  3.97227000e+00 7.95450000e+00 1.01577000e+01	N
atom  1.86057000e+00 1.03139000e+01 1.42981000e+01	Si
atom  4.16188000e+00 9.44325000e-01 1.92059000e+01	Si
atom  2.34927000e+00 3.18917000e+00 1.86863000e+01	Si
atom  2.83587000e+00 4.85415000e+00 1.83856000e+01	N
atom  3.84631000e+00 2.39629000e+00 1.83274000e+01	N
atom  3.04457000e+00 4.85681000e+00 1.66099000e+01	Si
atom  2.06027000e+00 3.68724000e+00 1.56640000e+01	N
atom  4.05560000e+00 9.42910000e+00 1.86834000e+01	Si
atom  3.20991000e+00 6.42899000e+00 1.59125000e+01	N
atom  3.29821000e+00 8.59899000e+00 1.74223000e+01	N
atom  2.70765000e+00 6.03023000e+00 1.96098000e+01	Si
atom  3.20561000e+00 3.28306000e+00 2.23884000e+01	N
atom  3.21983000e+00 1.07918000e+00 2.05811000e+01	N
atom  2.21872000e+00 2.36875000e+00 2.12984000e+01	Si
atom  3.40030000e+00 4.95534000e+00 2.27147000e+01	Si
atom  2.38289000e+00 5.58329000e+00 2.14028000e+01	N
atom  3.14553000e+00 6.26743000e+00 2.38292000e+01	N
atom  2.99159000e+00 8.05505000e+00 2.37679000e+01	Si
atom  3.33911000e+00 9.67200000e+00 2.03093000e+01	N
atom  2.26423000e+00 1.01287000e+01 2.16207000e+01	Si
atom  1.95765000e+00 8.71226000e+00 2.25136000e+01	N
atom  3.91387000e+00 7.14332000e+00 1.99991000e+01	N
atom  3.48971000e+00 3.40539000e+00 2.57598000e+01	N
atom  2.53989000e+00 1.27779000e+00 2.87559000e+01	N
atom  2.83007000e+00 3.05196000e+00 2.88151000e+01	Si
atom  2.36895000e+00 8.66093000e+00 2.73010000e+01	Si
atom  2.55154000e+00 8.57188000e+00 2.90176000e+01	N
atom  4.02470000e+00 8.60307000e+00 2.67360000e+01	N
atom  2.56689000e+00 3.60043000e+00 3.05231000e+01	N
atom  3.06559000e+00 2.30946000e+00 3.28544000e+01	N
atom  3.70396000e+00 3.51245000e+00 3.17905000e+01	Si
atom  3.31699000e+00 6.90394000e-01 3.30244000e+01	Si
atom  3.77479000e+00 4.80263000e+00 3.29074000e+01	N
atom  3.65977000e+00 7.39766000e+00 3.15860000e+01	N
atom  3.53719000e+00 6.47071000e+00 3.31042000e+01	Si
atom  2.00576000e+00 6.61567000e+00 3.39470000e+01	N
atom  2.86925000e+00 1.00023000e+01 2.99074000e+01	Si
atom  2.98251000e+00 7.13383000e+00 3.00040000e+01	Si
atom  3.19526000e+00 3.17871000e+00 3.53777000e+01	N
atom  3.33524000e+00 2.18978000e+00 3.71013000e+01	Si
atom  3.39899000e+00 1.94241000e+00 3.89653000e+01	N
atom  2.94008000e+00 6.24830000e-01 3.64824000e+01	N
atom  3.43434000e+00 3.58686000e+00 3.95223000e+01	Si
atom  3.81726000e+00 4.98549000e-01 3.97210000e+01	Si
atom  3.06611000e+00 9.07847000e+00 3.45911000e+01	N
atom  2.50378000e+00 7.58101000e+00 3.69078000e+01	N
atom  3.05070000e+00 8.09515000e+00 3.84866000e+01	Si
atom  3.74428000e+00 6.98813000e+00 3.96622000e+01	N
atom  1.97648000e+00 7.93364000e+00 3.52810000e+01	Si
atom  4.30910000e+00 9.19763000e+00 3.83562000e+01	N
atom  2.50138000e+00 1.30301000e+01 4.04721000e+00	Si
atom  3.64863000e+00 1.25990000e+01 1.26481000e+00	Si
atom  2.35915000e+00 1.30343000e+01 2.36333000e+00	N
atom  3.43298000e+00 1.11139000e+01 4.38874000e-01	N
atom  3.96107000e+00 1.22415000e+01 4.59875000e+00	N
atom  2.21770000e+00 1.47050000e+01 4.55243000e+00	N
atom  4.14468000e+00 1.37220000e+01 9.13992000e-02	N
atom  1.76910000e+00 1.49581000e+01 4.38614000e-01	N
atom  3.73084000e+00 1.56779000e+01 2.29390000e+00	N
atom  3.43177000e+00 1.57549000e+01 3.99395000e+00	Si
atom  3.41045000e+00 1.90632000e+01 2.41800000e+00	N
atom  2.73137000e+00 1.72787000e+01 4.31784000e+00	N
atom  3.39962000e+00 1.88383000e+01 7.15844000e-01	Si
atom  2.54153000e+00 1.63168000e+01 1.19363000e+00	Si
atom  3.49699000e+00 1.72404000e+01 7.15358000e-02	N
atom  2.13614000e+00 1.98391000e+01 6.37461000e-02	N
atom  2.01423000e+00 1.83828000e+01 3.21764000e+00	Si
atom  2.74215000e+00 1.24893000e+01 7.07803000e+00	N
atom  2.46757000e+00 1.18049000e+01 8.66842000e+00	Si
atom  3.96882000e+00 1.25681000e+01 9.36597000e+00	N
atom  2.91220000e+00 1.72451000e+01 9.55094000e+00	N
atom  3.06719000e+00 1.59371000e+01 8.44452000e+00	Si
atom  4.25967000e+00 2.02868000e+01 6.21163000e+00	Si
atom  2.54754000e+00 1.77162000e+01 6.03014000e+00	Si
atom  3.66333000e+00 1.68813000e+01 7.03316000e+00	N
atom  2.69339000e+00 1.94268000e+01 6.18924000e+00	N
atom  3.02309000e+00 1.39240000e+01 1.41617000e+01	N
atom  2.55049000e+00 1.46685000e+01 1.14479000e+01	N
atom  3.15042000e+00 1.32145000e+01 1.07622000e+01	Si
atom  3.04456000e+00 1.23410000e+01 1.35965000e+01	Si
atom  3.46286000e+00 1.09475000e+01 1.45143000e+01	N
atom  3.90156000e+00 1.24320000e+01 1.21007000e+01	N
atom  3.25341000e+00 1.51931000e+01 1.29925000e+01	Si
atom  3.51175000e+00 1.93750000e+01 1.38248000e+01	N
atom  2.93982000e+00 1.81213000e+01 1.27104000e+01	Si
atom  2.32571000e+00 1.66706000e+01 1.34575000e+01	N
atom  2.61436000e+00 1.30770000e+01 1.67437000e+01	N
atom  3.42665000e+00 1.33207000e+01 1.82454000e+01	Si
atom  3.28503000e+00 1.44165000e+01 1.57461000e+01	Si
atom  3.01067000e+00 1.50607000e+01 1.84176000e+01	N
atom  2.67796000e+00 1.26135000e+01 1.96389000e+01	N
atom  4.27691000e+00 1.11326000e+01 1.84025000e+01	N
atom  3.72858000e+00 1.59014000e+01 1.97504000e+01	Si
atom  4.05176000e+00 1.82519000e+01 1.66108000e+01	N
atom  2.63327000e+00 1.98712000e+01 1.78938000e+01	N
atom  2.40649000e+00 1.83533000e+01 1.70629000e+01	Si
atom  2.19795000e+00 1.57742000e+01 1.60101000e+01	N
atom  3.31784000e+00 1.31425000e+01 2.40291000e+01	N
atom  3.27665000e+00 1.15394000e+01 2.18963000e+01	N
atom  2.37154000e+00 1.44054000e+01 2.32393000e+01	Si
atom  3.86651000e+00 1.14626000e+01 2.02019000e+01	Si
atom  3.37650000e+00 1.02922000e+01 2.44800000e+01	N
atom  3.96597000e+00 1.16344000e+01 2.34076000e+01	Si
atom  3.24671000e+00 1.71130000e+01 2.24112000e+01	Si
atom  3.20806000e+00 1.58815000e+01 2.35288000e+01	N
atom  2.68492000e+00 1.63563000e+01 2.10240000e+01	N
atom  2.48521000e+00 1.86199000e+01 2.25706000e+01	N
atom  3.55527000e+00 2.00362000e+01 2.23883000e+01	Si
atom  4.23471000e+00 1.99974000e+01 2.08233000e+01	N
atom  2.53466000e+00 1.14831000e+01 2.90128000e+01	N
atom  3.61363000e+00 1.33993000e+01 2.57237000e+01	Si
atom  3.19211000e+00 1.39580000e+01 2.82729000e+01	N
atom  2.06193000e+00 1.26514000e+01 2.62013000e+01	N
atom  3.97901000e+00 1.50826000e+01 2.59865000e+01	N
atom  1.94026000e+00 1.30752000e+01 2.95618000e+01	Si
atom  4.06915000e+00 1.96262000e+01 2.72956000e+01	Si
atom  2.36346000e+00 1.75286000e+01 2.87414000e+01	Si
atom  3.85941000e+00 1.65554000e+01 2.90433000e+01	N
atom  3.47054000e+00 1.55928000e+01 2.76308000e+01	Si
atom  2.02454000e+00 1.65328000e+01 2.73695000e+01	N
atom  2.90507000e+00 1.90840000e+01 2.84832000e+01	N
atom  2.99613000e+00 1.34637000e+01 3.41208000e+01	Si
atom  3.63196000e+00 1.18479000e+01 3.41629000e+01	N
atom  3.81287000e+00 1.47279000e+01 3.32795000e+01	N
atom  2.13309000e+00 1.44852000e+01 3.05641000e+01	N
atom  3.42475000e+00 1.55905000e+01 3.05004000e+01	Si
atom  3.58553000e+00 1.83813000e+01 3.37200000e+01	N
atom  3.09929000e+00 1.67818000e+01 3.17227000e+01	N
atom  3.69883000e+00 1.65976000e+01 3.34448000e+01	Si
atom  2.51837000e+00 1.95723000e+01 3.10867000e+01	N
atom  3.06240000e+00 1.98123000e+01 3.44639000e+01	Si
atom  3.79887000e+00 1.99176000e+01 2.97791000e+01	Si
atom  2.47443000e+00 1.06908000e+01 3.46543000e+01	Si
atom  2.92502000e+00 1.38589000e+01 3.58103000e+01	N
atom  2.81349000e+00 1.43517000e+01 3.91558000e+01	Si
atom  2.63292000e+00 1.24643000e+01 3.68280000e+01	Si
atom  4.06367000e+00 1.19965000e+01 3.77120000e+01	N
atom  3.73035000e+00 1.64624000e+01 3.53484000e+01	N
atom  2.81855000e+00 1.54747000e+01 3.64246000e+01	Si
atom  3.66079000e+00 1.53938000e+01 3.79672000e+01	N
atom  2.83106000e+00 1.94562000e+01 3.62977000e+01	N
atom  2.44659000e+00 2.28168000e+01 2.29717000e+00	N
atom  2.68412000e+00 2.39419000e+01 9.18729000e-01	Si
atom  4.18846000e+00 2.28341000e+01 2.57289000e+00	Si
atom  3.34773000e+00 2.83753000e+01 7.14484000e-01	N
atom  2.60763000e+00 2.74946000e+01 3.93223000e+00	N
atom  2.41044000e+00 2.57998000e+01 3.31988000e+00	Si
atom  3.07181000e+00 3.00063000e+01 3.07238000e+00	N
atom  4.12536000e+00 2.56741000e+01 3.45368000e+00	N
atom  4.17681000e+00 2.91291000e+01 2.05420000e+00	Si
atom  2.04872000e+00 2.91561000e+01 4.13431000e+00	Si
atom  3.34107000e+00 2.17491000e+01 6.54267000e+00	N
atom  3.42132000e+00 2.44732000e+01 6.82073000e+00	N
atom  4.09150000e+00 2.51495000e+01 8.33575000e+00	Si
atom  4.17654000e+00 2.31047000e+01 6.05575000e+00	Si
atom  4.29069000e+00 2.97719000e+01 9.47834000e+00	Si
atom  2.00466000e+00 2.95541000e+01 5.90264000e+00	N
atom  3.17361000e+00 2.84729000e+01 6.71156000e+00	Si
atom  2.92886000e+00 2.56570000e+01 9.50072000e+00	N
atom  2.48766000e+00 2.70256000e+01 7.20915000e+00	N
atom  4.14033000e+00 2.94817000e+01 7.75716000e+00	N
atom  2.04519000e+00 2.54349000e+01 6.41297000e+00	Si
atom  3.25139000e+00 2.41649000e+01 1.17286000e+01	N
atom  3.31201000e+00 2.10178000e+01 1.32904000e+01	Si
atom  3.68336000e+00 2.09430000e+01 1.15210000e+01	N
atom  3.80461000e+00 2.41141000e+01 1.33689000e+01	Si
atom  3.79045000e+00 2.24778000e+01 1.40127000e+01	N
atom  1.86089000e+00 2.05714000e+01 1.13634000e+01	Si
atom  3.15143000e+00 2.52855000e+01 1.44856000e+01	N
atom  2.23107000e+00 2.54011000e+01 1.10343000e+01	Si
atom  2.71991000e+00 2.90649000e+01 1.30260000e+01	N
atom  3.13927000e+00 2.87547000e+01 1.03455000e+01	N
atom  3.38005000e+00 2.78868000e+01 1.18645000e+01	Si
atom  2.32883000e+00 2.66397000e+01 1.21730000e+01	N
atom  3.76845000e+00 3.00645000e+01 1.40065000e+01	Si
atom  3.23340000e+00 2.47615000e+01 1.73394000e+01	N
atom  2.26475000e+00 2.14901000e+01 1.86116000e+01	Si
atom  4.06842000e+00 2.18469000e+01 1.83714000e+01	N
atom  4.16661000e+00 2.51427000e+01 1.59033000e+01	Si
atom  2.70571000e+00 2.61642000e+01 1.85112000e+01	Si
atom  2.99504000e+00 2.77122000e+01 1.76684000e+01	N
atom  1.96474000e+00 2.88737000e+01 1.86476000e+01	Si
atom  2.25821000e+00 3.03266000e+01 1.50337000e+01	N
atom  2.58351000e+00 2.13881000e+01 2.31069000e+01	N