lattice_vector  3.99773771e+01 0.00000000e+00 0.00000000e+00
lattice_vector  2.44790835e-15 3.99773771e+01 0.00000000e+00
lattice_vector  2.44790835e-15 2.44790835e-15 3.99773771e+01
atom  1.00929000e+00 6.85872000e-01 2.08246000e-01	Si
atom  4.26320000e+00 1.41282000e+00 3.28686000e+00	Si
atom  -2.44588000e-01 1.26006000e+00 1.33958000e+00	N
atom  7.02171000e+00 2.07189000e+00 3.02060000e+00	Si
atom  8.55093000e+00 1.28775000e+00 3.02121000e+00	N
atom  5.76946000e+00 9.47396000e-01 2.50109000e+00	N
atom  6.07778000e+00 2.54863000e-01 9.24347000e-01	Si
atom  4.27826000e+00 1.90268000e+00 4.89942000e+00	N
atom  1.67395000e+00 1.80407000e+00 5.25310000e+00	N
atom  3.20939000e+00 2.05718000e+00 7.61547000e+00	N
atom  7.03729000e-01 1.44454000e+00 8.04468000e+00	N
atom  3.73417000e+00 1.46034000e+00 9.16945000e+00	Si
atom  3.28676000e+00 1.05119000e+00 6.07989000e+00	Si
atom  5.85559000e+00 8.31232000e-01 7.48652000e+00	Si
atom  5.36470000e+00 9.11939000e-01 9.05599000e+00	N
atom  8.74585000e+00 2.28122000e+00 8.81595000e+00	N
atom  8.68428000e+00 1.07093000e+00 7.55807000e+00	Si
atom  6.20614000e+00 2.28601000e+00 6.77907000e+00	N
atom  8.99969000e+00 1.95638000e+00 6.08823000e+00	N
atom  6.62517000e-01 9.08495000e-01 1.29478000e+01	Si
atom  1.98083000e+00 9.50503000e-01 1.41063000e+01	N
atom  1.14116000e+00 2.04457000e+00 1.17976000e+01	N
atom  3.23021000e+00 2.08131000e+00 1.41620000e+01	Si
atom  5.07352000e+00 9.29324000e-01 1.16592000e+01	N
atom  8.44959000e+00 2.21427000e+00 1.34110000e+01	Si
atom  4.71583000e+00 1.21314000e+00 1.45418000e+01	N
atom  8.37517000e+00 5.05555000e-01 1.34430000e+01	N
atom  9.43187000e+00 2.03961000e+00 1.04426000e+01	Si
atom  4.61796000e-01 2.30954000e+00 1.88505000e+01	Si
atom  3.75406000e+00 1.64997000e+00 1.71617000e+01	N
atom  1.42731000e+00 9.43580000e-01 1.85526000e+01	N
atom  2.59530000e+00 4.13794000e-01 1.73996000e+01	Si
atom  7.18741000e+00 1.19159000e+00 1.79298000e+01	Si
atom  4.78706000e+00 5.14676000e-01 1.62234000e+01	Si
atom  6.27935000e+00 1.47037000e+00 1.65293000e+01	N
atom  5.85645000e+00 2.47558000e+00 1.52354000e+01	Si
atom  6.18452000e+00 9.53991000e-01 1.93158000e+01	N
atom  8.61842000e+00 2.11092000e+00 1.82542000e+01	N
atom  3.58473000e+00 1.73447000e+00 2.04916000e+01	N
atom  3.02824000e+00 1.90218000e+00 2.35547000e+01	Si
atom  3.41069000e+00 3.71497000e-01 2.28203000e+01	N
atom  6.00693000e+00 1.57346000e+00 2.66830000e+01	Si
atom  8.48374000e+00 2.03293000e+00 2.11940000e+01	N
atom  7.09668000e+00 2.17663000e+00 2.21182000e+01	Si
atom  6.41834000e+00 5.00857000e-01 2.23032000e+01	N
atom  5.07530000e+00 2.15827000e+00 1.97929000e+01	Si
atom  2.48989000e+00 1.01478000e+00 2.48721000e+01	N
atom  3.92213000e+00 2.18516000e+00 2.86573000e+01	Si
atom  2.67152000e+00 2.10476000e+00 2.74984000e+01	N
atom  2.24174000e+00 6.58151000e-01 2.65784000e+01	Si
atom  5.19049000e-01 4.46686000e-01 2.66730000e+01	N
atom  5.68968000e+00 1.01512000e+00 2.50865000e+01	N
atom  8.25977000e+00 1.99021000e+00 2.85047000e+01	Si
atom  7.48717000e+00 8.72977000e-01 2.96768000e+01	N
atom  7.65257000e+00 1.15839000e+00 2.70577000e+01	N
atom  5.16456000e+00 1.08395000e+00 2.80936000e+01	N
atom  8.58024000e+00 3.57708000e-01 2.57428000e+01	Si
atom  3.83635000e+00 1.84316000e+00 3.19979000e+01	Si
atom  2.41586000e+00 9.95763000e-01 3.24326000e+01	N
atom  7.38545000e-01 1.56086000e+00 3.25363000e+01	Si
atom  2.77431000e-01 9.42654000e-01 3.40683000e+01	N
atom  -1.45146000e-01 8.15811000e-01 3.13214000e+01	N
atom  3.72902000e+00 2.48538000e+00 3.03132000e+01	N
atom  8.21997000e+00 6.47734000e-01 3.12825000e+01	Si
atom  5.51991000e+00 1.36425000e+00 3.23236000e+01	N
atom  8.22469000e+00 2.05989000e+00 3.21885000e+01	N
atom  6.76837000e+00 2.31090000e+00 3.31938000e+01	Si
atom  1.42420000e+00 1.61806000e+00 3.51327000e+01	Si
atom  7.52838000e-01 1.61704000e+00 3.67485000e+01	N
atom  3.33511000e+00 1.28557000e+00 3.78276000e+01	N
atom  4.06847000e+00 1.15851000e+00 3.62429000e+01	Si
atom  2.92634000e+00 6.60392000e-01 3.49928000e+01	N
atom  1.94237000e+00 2.23035000e+00 3.80316000e+01	Si
atom  1.15323000e+00 2.32054000e+00 3.95520000e+01	N
atom  7.66924000e+00 1.62555000e+00 3.78187000e+01	N
atom  7.00823000e+00 1.75759000e+00 3.47882000e+01	N
atom  7.31892000e+00 8.42441000e-01 3.61784000e+01	Si
atom  5.66938000e+00 5.11705000e-01 3.67176000e+01	N
atom  5.39118000e+00 1.07699000e+00 3.95927000e+01	N
atom  5.93723000e+00 1.79383000e+00 3.80482000e+01	Si
atom  7.13428000e-01 3.65805000e+00 2.27640000e+00	N
atom  2.36516000e+00 4.01244000e+00 2.54203000e+00	Si
atom  2.52411000e+00 4.29223000e+00 4.24744000e+00	N
atom  3.70491000e+00 2.85830000e+00 2.29840000e+00	N
atom  7.33791000e-02 2.87156000e+00 8.76588000e-01	Si
atom  -2.95045000e-01 4.55007000e+00 3.43807000e+00	Si
atom  4.64325000e+00 4.82765000e+00 3.39515000e-01	N
atom  6.59743000e+00 3.35706000e+00 1.90646000e+00	N
atom  6.81305000e+00 3.14154000e+00 4.49371000e+00	N
atom  4.95803000e+00 3.98439000e+00 1.79428000e+00	Si
atom  7.83806000e+00 4.33555000e+00 1.15859000e+00	Si
atom  8.82027000e+00 4.05181000e+00 2.62387000e+00	N
atom  6.93614000e+00 4.64265000e+00 3.41661000e+00	Si
atom  1.72679000e+00 2.88098000e+00 7.90853000e+00	Si
atom  -1.07792000e-01 3.96824000e+00 5.00282000e+00	N
atom  1.77782000e+00 4.24485000e+00 6.86200000e+00	N
atom  1.51426000e+00 3.49421000e+00 5.34462000e+00	Si
atom  1.08081000e+00 3.74028000e+00 9.35242000e+00	N
atom  7.61556000e+00 2.94618000e+00 6.01503000e+00	Si
atom  7.94920000e+00 4.38350000e+00 6.90976000e+00	N
atom  4.94153000e+00 4.62174000e+00 5.87571000e+00	N
atom  8.66124000e+00 3.98653000e+00 8.46982000e+00	Si
atom  5.32191000e+00 2.99983000e+00 5.58506000e+00	Si
atom  1.80667000e+00 3.35425000e+00 1.08806000e+01	Si
atom  2.83330000e+00 4.35985000e+00 1.33789000e+01	Si
atom  3.90158000e+00 3.15623000e+00 1.28836000e+01	N
atom  1.78401000e+00 4.72013000e+00 1.20383000e+01	N
atom  3.34729000e+00 2.70198000e+00 1.02972000e+01	N
atom  4.69002000e+00 2.58001000e+00 1.14674000e+01	Si
atom  5.92798000e+00 3.67566000e+00 1.09428000e+01	N
atom  7.57050000e+00 4.03469000e+00 1.13189000e+01	Si
atom  7.17365000e+00 2.98161000e+00 1.42445000e+01	N
atom  7.43548000e+00 4.73608000e+00 1.43068000e+01	Si
atom  8.47876000e+00 2.65652000e+00 1.17216000e+01	N
atom  2.29374000e+00 3.47627000e+00 1.48927000e+01	N
atom  5.23932000e-01 3.12709000e+00 1.72927000e+01	N
atom  1.59558000e+00 4.12656000e+00 1.63171000e+01	Si
atom  4.23452000e+00 3.29795000e+00 1.73550000e+01	Si
atom  2.91892000e+00 4.44840000e+00 1.73465000e+01	N
atom  8.77647000e+00 4.66709000e+00 1.96684000e+01	N
atom  4.92568000e+00 3.59324000e+00 1.89121000e+01	N
atom  4.99447000e+00 3.76422000e+00 1.58819000e+01	N
atom  8.92968000e+00 2.94768000e+00 1.97154000e+01	Si
atom  3.52675000e+00 4.59466000e+00 2.12343000e+01	N
atom  2.63150000e+00 3.10629000e+00 2.09218000e+01	Si
atom  1.02546000e+00 3.21236000e+00 2.02514000e+01	N
atom  3.29633000e+00 4.52216000e+00 2.43694000e+01	Si
atom  4.23135000e+00 3.10660000e+00 2.38571000e+01	N
atom  3.74233000e-01 3.24773000e+00 2.18988000e+01	Si
atom  2.47079000e-01 3.97188000e+00 2.46013000e+01	Si
atom  5.94742000e+00 3.05479000e+00 2.10435000e+01	N
atom  5.06410000e+00 4.42930000e+00 2.04938000e+01	Si
atom  7.27925000e+00 2.91620000e+00 2.36331000e+01	N
atom  8.82684000e+00 3.23150000e+00 2.46079000e+01	Si
atom  5.82968000e+00 2.72330000e+00 2.45271000e+01	Si
atom  1.94398000e+00 2.72113000e+00 2.24810000e+01	N
atom  1.87885000e+00 3.71908000e+00 2.51746000e+01	N
atom  1.77810000e+00 3.45955000e+00 2.68681000e+01	Si
atom  7.35051000e-02 3.02066000e+00 2.72362000e+01	N
atom  8.40836000e-01 4.19312000e+00 2.97565000e+01	N
atom  5.32723000e+00 4.60060000e+00 2.69898000e+01	Si
atom  8.08448000e+00 4.81050000e+00 2.75908000e+01	Si
atom  8.75151000e+00 4.23132000e+00 2.60116000e+01	N
atom  4.72899000e+00 3.75262000e+00 2.83735000e+01	N
atom  7.90971000e+00 3.68615000e+00 2.88687000e+01	N
atom  5.99187000e+00 3.25158000e+00 2.61649000e+01	N
atom  -2.68025000e-01 4.43353000e+00 2.29567000e+01	N
atom  -3.28684000e-01 4.03694000e+00 2.85116000e+01	Si
atom  4.94731000e-01 4.13051000e+00 3.38676000e+01	Si
atom  1.96466000e-01 3.30516000e+00 3.23451000e+01	N
atom  4.06859000e+00 3.35464000e+00 3.29261000e+01	N
atom  3.46074000e+00 3.51428000e+00 3.44728000e+01	Si
atom  1.73383000e+00 3.16284000e+00 3.44917000e+01	N
atom  4.38662000e+00 4.09729000e+00 3.00257000e+01	Si
atom  6.76586000e+00 4.09183000e+00 3.33723000e+01	N
atom  5.83467000e+00 4.43162000e+00 3.08819000e+01	N
atom  7.51421000e+00 4.57633000e+00 3.03843000e+01	Si
atom  8.87509000e+00 4.63299000e+00 3.15146000e+01	N
atom  5.30158000e+00 4.49944000e+00 3.26001000e+01	Si
atom  9.25302000e+00 3.81956000e+00 3.41477000e+01	N
atom  9.43038000e+00 3.25634000e+00 3.24132000e+01	Si
atom  2.51014000e+00 3.86764000e+00 3.77576000e+01	N
atom  4.00957000e+00 4.25114000e+00 3.68565000e+01	Si
atom  4.29749000e+00 2.82707000e+00 3.57908000e+01	N
atom  -1.86588000e-01 4.11466000e+00 3.75650000e+01	N
atom  8.29878000e+00 3.80170000e+00 3.96307000e+01	N
atom  8.76590000e+00 4.24552000e+00 3.67448000e+01	N
atom  5.54394000e+00 3.53989000e+00 3.79715000e+01	N
atom  8.46652000e+00 3.15781000e+00 3.80718000e+01	Si
atom  -4.85231000e-01 4.01478000e+00 3.08655000e+01	Si
atom  1.26275000e+00 5.03271000e+00 3.79026000e+01	Si
atom  5.43743000e+00 5.04813000e+00 3.88288000e+01	Si
atom  3.77264000e+00 6.26008000e+00 8.09692000e-01	Si
atom  3.62248000e+00 6.75701000e+00 4.40211000e+00	N
atom  3.04306000e-01 6.18485000e+00 3.47687000e+00	N
atom  2.54434000e+00 5.68046000e+00 1.93854000e+00	N
atom  1.44906000e+00 7.03368000e+00 2.44571000e+00	Si
atom  3.96275000e+00 5.13169000e+00 4.62401000e+00	Si
atom  6.50502000e+00 7.12738000e+00 1.02386000e+00	Si
atom  7.36130000e+00 5.86952000e+00 1.85042000e+00	N
atom  8.89054000e+00 6.03917000e+00 2.87396000e+00	Si
atom  7.92883000e+00 5.73957000e+00 4.31712000e+00	N
atom  4.99939000e+00 6.96244000e+00 3.26870000e+00	Si
atom  5.16345000e+00 5.16677000e+00 3.14718000e+00	N
atom  1.37187000e+00 5.87028000e+00 7.38354000e+00	Si
atom  2.15285000e+00 6.55791000e+00 8.79705000e+00	N
atom  1.45197000e+00 7.04860000e+00 6.01437000e+00	N
atom  3.79688000e+00 6.87782000e+00 8.44393000e+00	Si
atom  -2.63697000e-01 5.93554000e+00 8.02058000e+00	N
atom  4.06668000e+00 7.07500000e+00 6.80662000e+00	N
atom  1.25987000e-01 7.20358000e+00 4.92420000e+00	Si
atom  8.26997000e+00 5.88536000e+00 5.98123000e+00	Si
atom  6.83443000e+00 6.84131000e+00 6.47004000e+00	N
atom  8.23597000e+00 6.70716000e+00 9.68356000e+00	Si
atom  5.09033000e+00 5.59502000e+00 8.61013000e+00	N
atom  5.42666000e+00 5.98863000e+00 6.93022000e+00	Si
atom  7.83260000e+00 4.95623000e+00 9.73790000e+00	N
atom  6.27128000e-01 6.07418000e+00 1.20939000e+01	Si
atom  3.47043000e+00 5.76235000e+00 1.42543000e+01	N
atom  -8.65966000e-02 6.66332000e+00 1.06924000e+01	N
atom  5.75658000e+00 6.49851000e+00 1.10309000e+01	N
atom  7.05569000e+00 6.69757000e+00 1.21424000e+01	Si
atom  7.56396000e+00 5.11730000e+00 1.26294000e+01	N
atom  8.45822000e+00 7.29508000e+00 1.12934000e+01	N
atom  8.95971000e+00 5.33977000e+00 1.49050000e+01	N
atom  1.10168000e+00 7.10893000e+00 1.64621000e+01	Si
atom  7.23980000e-01 5.56098000e+00 1.58368000e+01	N
atom  3.29558000e+00 5.96366000e+00 1.79495000e+01	Si
atom  3.75254000e+00 6.67777000e+00 1.94417000e+01	N
atom  1.86352000e+00 6.94759000e+00 1.79601000e+01	N
atom  6.31069000e+00 5.90974000e+00 1.49504000e+01	N
atom  9.40735000e+00 6.72417000e+00 1.57626000e+01	Si
atom  4.35629000e+00 6.59549000e+00 1.67282000e+01	N
atom  4.69338000e+00 5.42697000e+00 1.54752000e+01	Si
atom  9.52140000e+00 6.41152000e+00 1.74316000e+01	N
atom  8.13267000e+00 7.29763000e+00 1.95347000e+01	N
atom  5.97138000e+00 5.10172000e+00 9.97069000e+00	Si
atom  2.36695000e+00 5.70206000e+00 2.35280000e+01	N
atom  2.95510000e+00 6.22476000e+00 2.19894000e+01	Si
atom  1.60350000e+00 7.03379000e+00 2.10911000e+01	N
atom  1.21985000e+00 6.40786000e+00 2.45664000e+01	Si
atom  6.03973000e+00 5.82912000e+00 2.05367000e+01	N
atom  8.46634000e+00 6.30893000e+00 2.19284000e+01	N
atom  7.73326000e+00 5.83599000e+00 2.03923000e+01	Si
atom  9.24854000e+00 6.65842000e+00 2.47387000e+01	N
atom  4.97661000e+00 7.20080000e+00 2.05295000e+01	Si
atom  1.89239000e+00 5.42228000e+00 2.93280000e+01	Si
atom  -1.55580000e-02 5.54346000e+00 2.53594000e+01	N
atom  3.07584000e+00 6.06125000e+00 2.67022000e+01	Si
atom  1.05222000e+00 6.91376000e+00 2.94854000e+01	N
atom  4.27156000e+00 6.63739000e+00 2.78577000e+01	N
atom  4.14038000e+00 5.06238000e+00 2.58013000e+01	N
atom  2.15471000e+00 7.23734000e+00 2.58421000e+01	N
atom  2.13040000e+00 4.90604000e+00 2.76670000e+01	N
atom  6.61477000e+00 5.70260000e+00 2.71738000e+01	N
atom  9.11770000e+00 6.97125000e+00 2.91746000e+01	Si
atom  3.88162000e+00 6.59486000e+00 3.14431000e+01	Si
atom  6.21945000e-01 5.80739000e+00 3.43349000e+01	N
atom  4.32128000e+00 6.54852000e+00 3.45174000e+01	Si
atom  3.26935000e+00 5.33956000e+00 3.03326000e+01	N
atom  4.55940000e+00 5.94312000e+00 3.28965000e+01	N
atom  7.15453000e+00 7.02461000e+00 3.26496000e+01	N
atom  8.29990000e+00 5.23439000e+00 3.36816000e+01	Si
atom  6.76960000e+00 7.34678000e+00 3.09644000e+01	Si
atom  7.63714000e+00 6.32302000e+00 2.98332000e+01	N
atom  8.48926000e+00 7.14043000e+00 3.76798000e+01	N
atom  3.29599000e+00 7.03115000e+00 3.79000000e+01	Si
atom  1.96190000e+00 6.19484000e+00 3.52496000e+01	Si
atom  1.88942000e+00 6.42700000e+00 3.70141000e+01	N
atom  3.92951000e-01 5.84056000e+00 3.91774000e+01	N
atom  3.49963000e+00 5.08362000e+00 3.52153000e+01	N
atom  2.88557000e+00 7.10572000e+00 3.95570000e+01	N
atom  4.41653000e+00 5.77395000e+00 3.76613000e+01	N
atom  6.53668000e+00 6.29319000e+00 3.93122000e+01	N
atom  7.75330000e+00 6.10498000e+00 3.50652000e+01	N
atom  8.67283000e+00 5.94512000e+00 3.64928000e+01	Si
atom  1.12212000e+00 7.33629000e+00 3.95587000e+01	Si
atom  2.42682000e+00 8.39204000e+00 2.50461000e+00	N
atom  2.28487000e-01 8.68422000e+00 4.14804000e+00	N
atom  3.78314000e+00 8.86410000e+00 1.57091000e+00	Si
atom  3.96663000e-01 7.61013000e+00 1.12470000e+00	N
atom  1.72993000e+00 9.51681000e+00 3.63457000e+00	Si
atom  7.20293000e+00 8.52994000e+00 1.72925000e-01	N
atom  5.90665000e+00 8.21604000e+00 4.09156000e+00	N
atom  8.76924000e+00 9.13499000e+00 3.31605000e+00	Si
atom  9.14610000e+00 7.72994000e+00 2.49835000e+00	N
atom  4.84720000e+00 7.45462000e+00 1.57594000e+00	N
atom  2.81568000e+00 9.38307000e+00 5.10885000e+00	N
atom  8.19383000e-02 8.53879000e+00 8.59177000e+00	N
atom  2.95060000e+00 7.72033000e+00 5.60768000e+00	Si
atom  4.33303000e+00 8.34194000e+00 9.14866000e+00	N
atom  1.08930000e+00 7.61441000e+00 9.75856000e+00	Si
atom  6.83773000e+00 8.32076000e+00 5.54101000e+00	Si
atom  7.05416000e+00 9.21578000e+00 8.23425000e+00	Si
atom  6.23940000e+00 9.43977000e+00 6.74471000e+00	N
atom  8.31583000e+00 8.96451000e+00 4.98693000e+00	N
atom  7.01449000e+00 7.83358000e+00 9.20200000e+00	N
atom  3.25764000e+00 9.68021000e+00 9.40445000e+00	Si
atom  3.76304000e+00 8.41168000e+00 1.30234000e+01	N
atom  2.25201000e+00 8.89627000e+00 1.21432000e+01	Si
atom  2.04602000e+00 8.91279000e+00 1.04634000e+01	N
atom  1.54101000e+00 7.42546000e+00 1.27110000e+01	N
atom  2.85514000e+00 7.30605000e+00 1.40070000e+01	Si
atom  5.26108000e+00 9.19831000e+00 1.28142000e+01	Si
atom  6.47574000e+00 7.97758000e+00 1.30817000e+01	N
atom  8.96990000e+00 9.37396000e+00 1.44455000e+01	Si
atom  5.69332000e+00 8.02895000e+00 1.02488000e+01	Si
atom  5.43481000e+00 9.46927000e+00 1.11581000e+01	N
atom  6.67524000e+00 7.57556000e+00 1.47892000e+01	Si
atom  2.04971000e+00 8.01292000e+00 1.53789000e+01	N
atom  1.51072000e-01 8.75347000e+00 1.93161000e+01	N
atom  -1.46305000e-01 9.38370000e+00 1.77498000e+01	Si
atom  4.18857000e+00 9.49557000e+00 1.75934000e+01	N
atom  2.21674000e+00 7.58628000e+00 1.95456000e+01	Si
atom  4.98289000e+00 8.17571000e+00 1.67770000e+01	Si
atom  2.79212000e+00 9.21322000e+00 1.98140000e+01	N
atom  7.04232000e+00 8.49972000e+00 1.89196000e+01	Si
atom  6.56664000e+00 7.90742000e+00 1.73991000e+01	N
atom  5.52233000e+00 8.79858000e+00 1.52686000e+01	N
atom  8.37662000e+00 7.91953000e+00 1.50960000e+01	N
atom  1.57345000e+00 9.68034000e+00 1.53565000e+01	Si
atom  4.13408000e+00 9.07939000e+00 2.27950000e+01	Si
atom  4.57546000e-01 7.97432000e+00 2.20324000e+01	Si
atom  3.69521000e-01 7.67721000e+00 2.37273000e+01	N
atom  2.82367000e+00 9.37715000e+00 2.39342000e+01	N
atom  8.60664000e-01 9.64370000e+00 2.18832000e+01	N
atom  4.11327000e+00 7.54322000e+00 2.19734000e+01	N
atom  5.59085000e+00 9.39812000e+00 2.34980000e+01	N
atom  5.60691000e+00 8.62762000e+00 1.98403000e+01	N
atom  3.13119000e+00 8.89369000e+00 2.91444000e+01	N
atom  2.84607000e+00 8.82960000e+00 2.56032000e+01	Si
atom  4.54664000e+00 7.92807000e+00 2.89822000e+01	Si
atom  4.52153000e+00 8.36556000e+00 2.59931000e+01	N
atom  5.76544000e+00 9.30826000e+00 2.52293000e+01	Si
atom  6.00490000e+00 8.44004000e+00 2.82689000e+01	N
atom  5.78174000e+00 7.29325000e+00 2.68725000e+01	Si
atom  8.49177000e+00 8.21276000e+00 2.49164000e+01	Si
atom  8.73642000e+00 8.52733000e+00 2.84946000e+01	N
atom  7.00551000e+00 8.16842000e+00 2.57169000e+01	N
atom  7.31497000e+00 9.27764000e+00 2.89687000e+01	Si
atom  8.58059000e+00 9.63749000e+00 2.37558000e+01	N
atom  2.59871000e+00 8.62496000e+00 3.31911000e+01	Si
atom  1.83773000e+00 8.33256000e+00 3.02162000e+01	Si
atom  2.66815000e+00 7.82186000e+00 3.16449000e+01	N
atom  -1.62347000e-01 9.38410000e+00 3.21413000e+01	Si
atom  5.49012000e-01 9.41822000e+00 3.05189000e+01	N
atom  2.81210000e+00 7.44265000e+00 3.43882000e+01	N
atom  1.21145000e+00 9.70209000e+00 3.31987000e+01	N
atom  7.38876000e+00 8.96619000e+00 3.07036000e+01	N
atom  7.11167000e+00 7.57700000e+00 3.43445000e+01	Si
atom  8.54440000e+00 8.59301000e+00 3.45054000e+01	N
atom  9.78866000e-01 8.89051000e+00 3.86933000e+01	N
atom  3.61892000e+00 8.64714000e+00 3.75250000e+01	N
atom  2.56837000e+00 9.63436000e+00 3.85938000e+01	Si
atom  5.53757000e+00 7.68906000e+00 3.51089000e+01	N
atom  7.20511000e+00 7.74707000e+00 3.85728000e+01	Si
atom  6.28824000e+00 8.72575000e+00 3.75826000e+01	N
atom  5.00557000e+00 8.79760000e+00 3.64969000e+01	Si
atom  5.13423000e+00 7.34548000e+00 3.04575000e+01	N
atom  1.55590000e+00 1.08936000e+01 2.52430000e+00	N
atom  2.37339000e+00 1.13373000e+01 1.05559000e+00	Si
atom  3.04832000e+00 9.87558000e+00 2.60581000e-01	N
atom  1.89856000e-01 1.19254000e+01 2.92172000e+00	Si
atom  4.76796000e+00 1.01626000e+01 2.20441000e+00	N
atom  6.33459000e+00 1.12802000e+01 2.59487000e-01	N
atom  7.44608000e+00 1.00462000e+01 7.98946000e-01	Si
atom  5.10237000e+00 1.16582000e+01 1.40318000e+00	Si
atom  9.12136000e+00 1.05768000e+01 5.89649000e-01	N
atom  5.89072000e+00 1.09860000e+01 4.53539000e+00	N
atom  7.40786000e+00 9.79512000e+00 2.56606000e+00	N
atom  5.93410000e+00 9.78827000e+00 3.34601000e+00	Si
atom  -9.74125000e-02 1.18523000e+01 5.78025000e+00	Si
atom  6.42676000e-01 1.02201000e+01 8.52250000e+00	Si
atom  2.72783000e+00 1.06600000e+01 6.27333000e+00	Si
atom  4.25041000e+00 1.15944000e+01 6.60701000e+00	N
atom  1.60456000e+00 1.17286000e+01 5.51728000e+00	N
atom  2.32350000e+00 1.01248000e+01 7.89175000e+00	N
atom  4.11906000e+00 1.12108000e+01 9.42352000e+00	N
atom  6.68991000e-01 1.14016000e+01 9.78841000e+00	N
atom  -2.61585000e-01 1.10340000e+01 7.28923000e+00	N
atom  8.11138000e+00 1.14039000e+01 8.23880000e+00	Si
atom  7.05147000e+00 1.06181000e+01 9.37458000e+00	N
atom  9.28526000e+00 1.00958000e+01 5.81889000e+00	Si
atom  5.88956000e+00 1.10004000e+01 6.25409000e+00	Si
atom  9.07593000e+00 1.17363000e+01 5.39584000e+00	N
atom  8.59813000e+00 9.82250000e+00 7.57734000e+00	N
atom  1.26172000e+00 1.20200000e+01 -8.31806000e-02	N
atom  2.34298000e+00 1.06335000e+01 1.24493000e+01	N
atom  3.16996000e+00 1.15957000e+01 1.37376000e+01	Si
atom  1.23406000e-01 9.99770000e+00 1.45049000e+01	N
atom  1.24194000e+00 1.19624000e+01 1.22963000e+01	Si
atom  7.14861000e+00 1.11289000e+01 1.97611000e+01	Si
atom  5.46713000e+00 1.08265000e+01 1.34649000e+01	N
atom  5.62076000e+00 1.09846000e+01 1.02909000e+01	Si
atom  9.25545000e+00 9.82380000e+00 1.28065000e+01	N
atom  3.01227000e+00 1.06084000e+01 1.51010000e+01	N
atom  3.77166000e+00 1.08460000e+01 1.66241000e+01	Si
atom  8.47333000e-01 1.13596000e+01 1.94059000e+01	N
atom  1.33688000e+00 1.00119000e+01 1.70715000e+01	N
atom  1.27163000e+00 1.16224000e+01 1.77228000e+01	Si
atom  4.41662000e+00 9.75793000e+00 1.93053000e+01	Si
atom  7.79984000e+00 1.04538000e+01 1.51122000e+01	N
atom  5.32570000e+00 1.15321000e+01 1.61300000e+01	N
atom  8.03423000e+00 9.88192000e+00 1.89005000e+01	N
atom  9.05790000e+00 1.15559000e+01 1.57667000e+01	Si
atom  6.07673000e+00 1.04038000e+01 1.49712000e+01	Si
atom  5.34334000e+00 1.12308000e+01 1.93635000e+01	N
atom  1.42198000e+00 1.02984000e+01 2.34744000e+01	Si
atom  1.22688000e+00 9.85741000e+00 2.02350000e+01	Si
atom  4.24436000e+00 1.06906000e+01 2.20689000e+01	N
atom  1.82828000e+00 1.19289000e+01 2.29488000e+01	N
atom  3.35817000e+00 1.21976000e+01 2.21942000e+01	Si
atom  6.02905000e+00 1.08447000e+01 2.26123000e+01	Si
atom  7.22512000e+00 1.05970000e+01 2.14210000e+01	N
atom  8.73639000e+00 1.02424000e+01 2.21125000e+01	Si
atom  6.79389000e+00 1.21561000e+01 2.52727000e+01	Si
atom  9.48290000e+00 1.18005000e+01 2.20120000e+01	N
atom  5.01151000e-01 1.00419000e+01 2.49349000e+01	N
atom  4.32552000e-01 1.07727000e+01 2.94329000e+01	Si
atom  3.11704000e+00 1.04854000e+01 2.83528000e+01	Si
atom  7.92496000e-01 1.06837000e+01 2.65152000e+01	Si
atom  1.88926000e+00 1.16187000e+01 2.88299000e+01	N
atom  2.48588000e+00 1.01455000e+01 2.66931000e+01	N
atom  -1.36211000e-01 1.01141000e+01 2.78359000e+01	N
atom  4.59023000e+00 1.14187000e+01 2.83097000e+01	N
atom  7.26948000e+00 1.09149000e+01 2.83977000e+01	N
atom  5.58539000e+00 1.09709000e+01 2.57268000e+01	N
atom  8.37866000e+00 1.15556000e+01 2.58080000e+01	N
atom  5.97012000e+00 1.17857000e+01 2.93190000e+01	Si
atom  9.47183000e+00 1.04955000e+01 2.49916000e+01	Si
atom  8.65452000e+00 1.15807000e+01 2.75786000e+01	Si
atom  6.47967000e+00 1.22640000e+01 2.35610000e+01	N
atom  2.36791000e+00 1.10150000e+01 3.36315000e+01	Si
atom  3.68322000e+00 1.00029000e+01 3.33117000e+01	N
atom  -2.71068000e-01 1.19496000e+01 3.05488000e+01	N
atom  7.15197000e+00 1.02205000e+01 3.17937000e+01	Si
atom  5.08004000e+00 1.06455000e+01 3.41101000e+01	Si
atom  6.25550000e+00 1.14761000e+01 3.10672000e+01	N
atom  8.77124000e+00 1.06321000e+01 3.23281000e+01	N
atom  8.29480000e+00 1.01870000e+01 3.39497000e+01	Si
atom  6.58071000e+00 1.01457000e+01 3.34311000e+01	N
atom  2.87366000e+00 1.12333000e+01 3.78669000e+01	N
atom  2.32988000e+00 1.15925000e+01 3.52172000e+01	N
atom  3.68240000e+00 1.14136000e+01 3.63591000e+01	Si
atom  -2.87323000e-01 1.15236000e+01 3.52336000e+01	N
atom  7.79714000e+00 1.20107000e+01 3.78384000e+01	N
atom  9.10879000e+00 1.13714000e+01 3.69880000e+01	Si
atom  8.87944000e+00 1.13372000e+01 3.51706000e+01	N
atom  4.89332000e+00 1.03699000e+01 3.57768000e+01	N
atom  2.16627000e+00 1.22134000e+01 3.24336000e+01	N
atom  1.03332000e+00 1.33069000e+01 3.40575000e+00	N
atom  3.70709000e+00 1.28695000e+01 3.98495000e+00	N
atom  3.88908000e+00 1.38587000e+01 2.43047000e+00	Si
atom  3.63682000e+00 1.24457000e+01 1.21146000e+00	N
atom  2.12723000e+00 1.31254000e+01 4.72889000e+00	Si
atom  5.16364000e+00 1.38245000e+01 8.34066000e+00	N
atom  6.91887000e+00 1.20722000e+01 7.19709000e+00	N
atom  8.91601000e+00 1.25758000e+01 2.77579000e+00	N
atom  7.55956000e+00 1.35008000e+01 2.10919000e+00	Si
atom  5.91278000e+00 1.28066000e+01 2.48879000e+00	N
atom  5.43845000e+00 1.26200000e+01 4.19141000e+00	Si
atom  7.49508000e+00 1.37434000e+01 4.17785000e-01	N
atom  9.42196000e+00 1.30846000e+01 4.40828000e+00	Si
atom  2.55094000e+00 1.32413000e+01 8.23371000e+00	N
atom  4.06668000e+00 1.23977000e+01 8.11486000e+00	Si
atom  1.56703000e+00 1.29267000e+01 9.59415000e+00	Si
atom  6.38699000e+00 1.37309000e+01 7.07509000e+00	Si
atom  1.95253000e+00 1.44379000e+01 5.83126000e+00	N
atom  1.31550000e+00 1.46049000e+01 7.55295000e+00	Si
atom  6.06561000e+00 1.37693000e+01 5.37817000e+00	N
atom  3.99158000e+00 1.29361000e+01 1.30063000e+01	N
atom  1.97645000e+00 1.31224000e+01 1.12555000e+01	N
atom  1.60949000e+00 1.26697000e+01 1.38187000e+01	N
atom  3.16128000e+00 1.40795000e+01 1.20841000e+01	Si
atom  6.55663000e+00 1.31576000e+01 1.40973000e+01	N
atom  5.93478000e+00 1.24895000e+01 1.10868000e+01	N
atom  9.03089000e+00 1.41465000e+01 1.40878000e+01	Si
atom  5.68273000e+00 1.39782000e+01 1.01041000e+01	Si
atom  5.65096000e+00 1.24803000e+01 1.27839000e+01	Si
atom  9.42149000e+00 1.24585000e+01 1.42376000e+01	N
atom  1.47392000e+00 1.36468000e+01 1.52369000e+01	Si
atom  6.18428000e-01 1.25773000e+01 1.63499000e+01	N
atom  3.03822000e+00 1.37046000e+01 1.78497000e+01	Si
atom  1.48146000e+00 1.39704000e+01 1.86959000e+01	N
atom  4.48388000e+00 1.39974000e+01 1.86627000e+01	N
atom  8.51293000e+00 1.22565000e+01 1.94350000e+01	N
atom  5.56553000e+00 1.44183000e+01 1.61331000e+01	N
atom  8.70035000e+00 1.31096000e+01 1.78286000e+01	Si
atom  7.82104000e+00 1.25910000e+01 1.64548000e+01	N
atom  6.32533000e+00 1.28653000e+01 1.58443000e+01	Si
atom  2.97055000e+00 1.20306000e+01 1.76091000e+01	N
atom  8.80716000e+00 1.45854000e+01 1.24358000e+01	N
atom  7.35237000e+00 1.41966000e+01 1.82998000e+01	N
atom  3.03414000e+00 1.27350000e+01 2.05728000e+01	N
atom  8.20379000e-01 1.33505000e+01 2.30077000e+01	Si
atom  3.41267000e-01 1.35775000e+01 2.11474000e+01	N
atom  4.13792000e+00 1.32354000e+01 2.32842000e+01	N
atom  1.41779000e+00 1.29413000e+01 2.00467000e+01	Si
atom  4.81947000e+00 1.21862000e+01 2.67878000e+01	Si
atom  3.33351000e+00 1.38829000e+01 2.46910000e+01	Si
atom  5.89665000e+00 1.31880000e+01 2.09477000e+01	N
atom  5.73957000e+00 1.35526000e+01 2.26304000e+01	Si
atom  7.03778000e+00 1.41706000e+01 2.00609000e+01	Si
atom  9.35783000e+00 1.29303000e+01 2.07669000e+01	Si
atom  6.36724000e+00 1.31966000e+01 2.66042000e+01	N
atom  2.02303000e+00 1.29692000e+01 2.76515000e+01	Si
atom  3.47224000e+00 1.33115000e+01 2.64890000e+01	N
atom  6.40017000e-01 1.24574000e+01 2.66747000e+01	N
atom  8.75634000e+00 1.33271000e+01 2.80222000e+01	N
atom  6.15581000e+00 1.35047000e+01 2.91923000e+01	N
atom  7.17472000e+00 1.40885000e+01 2.78432000e+01	Si
atom  8.35215000e+00 1.43737000e+01 2.11036000e+01	N
atom  4.58724000e+00 1.27727000e+01 1.98441000e+01	Si
atom  3.12713000e+00 1.35673000e+01 3.20939000e+01	Si
atom  8.36720000e-01 1.28092000e+01 3.14781000e+01	Si
atom  1.88628000e+00 1.41012000e+01 3.09850000e+01	N
atom  3.19659000e+00 1.42754000e+01 3.37225000e+01	N
atom  4.55926000e+00 1.37464000e+01 3.46423000e+01	Si
atom  5.88538000e+00 1.38557000e+01 3.84424000e+01	N
atom  4.65617000e+00 1.35765000e+01 3.14301000e+01	N
atom  5.98353000e+00 1.27346000e+01 3.21848000e+01	Si
atom  7.34652000e+00 1.36271000e+01 3.26438000e+01	N
atom  5.11720000e+00 1.23929000e+01 3.37148000e+01	N
atom  6.40845000e-01 1.41647000e+01 3.50892000e+01	N
atom  9.91042000e-01 1.25334000e+01 3.56374000e+01	Si
atom  1.00121000e+00 1.31631000e+01 3.73271000e+01	N
atom  2.13280000e+00 1.26558000e+01 3.84891000e+01	Si
atom  3.21830000e+00 1.39786000e+01 3.87765000e+01	N
atom  4.28253000e+00 1.30538000e+01 3.62422000e+01	N
atom  6.83046000e+00 1.25483000e+01 3.91405000e+01	Si
atom  8.49324000e+00 1.41660000e+01 3.52367000e+01	N
atom  4.50859000e+00 1.41419000e+01 3.75429000e+01	Si
atom  -4.37385000e-01 1.21414000e+01 4.00207000e+01	Si
atom  1.08993000e+00 1.49456000e+01 2.74136000e+00	Si
atom  5.16276000e-01 1.58472000e+01 4.15279000e+00	N
atom  3.37707000e+00 1.50045000e+01 2.52953000e-01	Si
atom  2.59483000e+00 1.48460000e+01 1.82717000e+00	N
atom  -1.71547000e-01 1.51574000e+01 1.56229000e+00	N
atom  4.73262000e+00 1.51577000e+01 3.47527000e+00	N
atom  7.33800000e+00 1.51249000e+01 2.76524000e+00	N
atom  5.75221000e+00 1.57575000e+01 2.30220000e+00	Si
atom  8.18073000e+00 1.59787000e+01 4.01899000e+00	Si
atom  5.03481000e+00 1.50045000e+01 8.61928000e-01	N
atom  8.94790000e+00 1.46946000e+01 4.89552000e+00	N
atom  6.67468000e+00 1.67022000e+01 4.89168000e+00	N
atom  -1.54477000e-01 1.55351000e+01 6.98185000e+00	N
atom  2.50545000e+00 1.58711000e+01 7.82087000e+00	N
atom  2.72366000e+00 1.59699000e+01 5.96795000e+00	Si
atom  4.26074000e+00 1.53214000e+01 8.01801000e+00	Si
atom  4.44791000e+00 1.56863000e+01 6.25678000e+00	N
atom  5.54249000e+00 1.53811000e+01 5.00011000e+00	Si
atom  7.81284000e+00 1.47840000e+01 7.55884000e+00	N
atom  8.16582000e+00 1.53247000e+01 9.15217000e+00	Si
atom  9.14986000e+00 1.50470000e+01 6.52323000e+00	Si
atom  4.76077000e+00 1.66978000e+01 9.00107000e+00	N
atom  -4.95713000e-01 1.50321000e+01 5.34592000e+00	Si
atom  4.00535000e-01 1.41726000e+01 9.05278000e+00	N
atom  3.10291000e+00 1.57998000e+01 1.24665000e+01	N
atom  2.93189000e-01 1.55420000e+01 1.17381000e+01	N
atom  4.07361000e+00 1.63772000e+01 1.05961000e+01	Si
atom  1.64561000e+00 1.65811000e+01 1.17041000e+01	Si
atom  4.22063000e+00 1.46301000e+01 1.06464000e+01	N
atom  7.69650000e-01 1.51569000e+01 1.46356000e+01	N
atom  5.81509000e+00 1.50409000e+01 1.81655000e+01	Si
atom  4.62518000e+00 1.63998000e+01 1.30352000e+01	Si
atom  6.25855000e+00 1.49297000e+01 1.45076000e+01	Si
atom  7.03220000e+00 1.50572000e+01 1.03345000e+01	N
atom  6.11098000e+00 1.53988000e+01 1.27629000e+01	N
atom  7.52977000e+00 1.55919000e+01 1.19099000e+01	Si
atom  4.99279000e+00 1.64402000e+01 1.75254000e+01	N
atom  5.07472000e+00 1.63770000e+01 1.47474000e+01	N
atom  7.92334000e+00 1.53660000e+01 1.48723000e+01	N
atom  2.69602000e+00 1.45628000e+01 1.61962000e+01	N
atom  1.59854000e+00 1.59072000e+01 1.60022000e+01	Si
atom  5.49023000e-01 1.54198000e+01 1.85194000e+01	Si
atom  2.37811000e-01 1.61280000e+01 1.70038000e+01	N
atom  4.25909000e+00 1.56124000e+01 1.61823000e+01	Si