lattice_vector  3.99093631e+01 0.00000000e+00 0.00000000e+00
lattice_vector  2.44374369e-15 3.99093631e+01 0.00000000e+00
lattice_vector  2.44374369e-15 2.44374369e-15 3.99093631e+01
atom  1.80454000e+00 2.39536000e+00 9.53308000e-01	Si
atom  1.03713000e+00 1.02746000e+00 1.60942000e+00	N
atom  1.85350000e+00 4.72005000e+00 1.47274000e+00	Si
atom  6.36183000e-01 3.75620000e+00 6.30720000e-01	N
atom  2.84262000e+00 3.36990000e+00 1.97191000e+00	N
atom  6.25865000e+00 1.82719000e+00 1.25254000e+00	N
atom  7.37308000e+00 3.14382000e+00 1.14590000e+00	Si
atom  8.98167000e+00 2.72238000e+00 1.37726000e+00	N
atom  4.97806000e+00 5.44804000e+00 1.52510000e-01	N
atom  4.07014000e+00 9.97750000e+00 1.55947000e+00	N
atom  2.93953000e-01 8.62886000e+00 1.73181000e+00	Si
atom  -2.55436000e-02 7.02061000e+00 1.11795000e+00	N
atom  2.23533000e+00 5.91797000e+00 3.32138000e-01	N
atom  -2.40827000e-01 9.59134000e+00 4.33178000e-01	N
atom  3.71299000e+00 9.80368000e+00 -1.32603000e-01	Si
atom  5.71049000e+00 5.76640000e+00 1.79687000e+00	Si
atom  8.85539000e+00 9.84542000e+00 1.84517000e+00	N
atom  7.13979000e+00 6.65108000e+00 1.00671000e+00	N
atom  8.24705000e+00 5.91070000e+00 2.06459000e+00	Si
atom  3.77986000e+00 3.47146000e+00 3.42933000e+00	Si
atom  4.65800000e+00 2.06910000e+00 3.78693000e+00	N
atom  4.73095000e+00 4.88802000e+00 3.13450000e+00	N
atom  6.03081000e+00 1.45465000e+00 2.95938000e+00	Si
atom  7.34874000e+00 2.17490000e+00 3.76485000e+00	N
atom  7.97346000e+00 3.81601000e+00 3.88301000e+00	Si
atom  7.23761000e+00 4.43544000e+00 2.32327000e+00	N
atom  8.91130000e+00 1.45488000e+00 4.36198000e+00	Si
atom  1.33640000e+00 5.44245000e+00 2.90666000e+00	N
atom  3.80382000e+00 9.24810000e+00 3.87845000e+00	N
atom  1.34788000e+00 9.60278000e+00 2.69504000e+00	N
atom  4.08515000e-01 9.20223000e+00 4.17780000e+00	Si
atom  -2.30770000e-01 6.25833000e+00 2.75665000e+00	Si
atom  2.12795000e+00 5.38064000e+00 4.44754000e+00	Si
atom  2.92372000e+00 1.03306000e+01 2.77963000e+00	Si
atom  5.07055000e+00 9.00591000e+00 2.68912000e+00	Si
atom  6.42508000e+00 9.69070000e+00 3.36905000e+00	N
atom  8.46968000e+00 6.39048000e+00 3.61740000e+00	N
atom  8.38300000e+00 9.36594000e+00 3.67698000e+00	Si
atom  5.12379000e+00 7.31162000e+00 2.49716000e+00	N
atom  4.82980000e+00 6.43754000e+00 3.99271000e+00	Si
atom  2.59542000e+00 3.23189000e+00 6.44088000e+00	Si
atom  3.77858000e+00 1.94221000e+00 6.53206000e+00	N
atom  2.76570000e+00 3.82425000e+00 4.80537000e+00	N
atom  4.34538000e+00 9.87160000e-01 5.22887000e+00	Si
atom  1.03140000e+00 2.44743000e+00 6.75293000e+00	N
atom  8.21492000e-01 7.09261000e-01 6.93354000e+00	Si
atom  7.61123000e+00 4.68895000e+00 5.32211000e+00	N
atom  9.03605000e+00 6.57418000e-01 5.93507000e+00	N
atom  8.64232000e+00 4.56247000e+00 6.82660000e+00	Si
atom  3.28697000e+00 6.68985000e+00 4.69494000e+00	N
atom  9.65639000e-01 5.51433000e+00 5.77767000e+00	N
atom  3.07552000e+00 8.37321000e+00 5.11784000e+00	Si
atom  1.46080000e+00 8.80338000e+00 5.41117000e+00	N
atom  4.10883000e+00 8.46484000e+00 6.52619000e+00	N
atom  7.61110000e+00 9.32365000e+00 6.64588000e+00	Si
atom  7.81410000e+00 6.57270000e+00 5.17316000e+00	Si
atom  6.20823000e+00 1.02030000e+01 6.05621000e+00	N
atom  5.41162000e+00 7.43268000e+00 6.81740000e+00	Si
atom  8.09605000e+00 8.53956000e+00 5.21283000e+00	N
atom  5.98981000e+00 6.79344000e+00 5.29691000e+00	N
atom  9.08075000e+00 6.32550000e+00 6.44657000e+00	N
atom  4.68505000e+00 1.00165000e+01 6.94312000e+00	Si
atom  6.85693000e-01 4.73651000e+00 8.36199000e+00	N
atom  3.05817000e+00 4.61151000e+00 7.45481000e+00	N
atom  4.34234000e+00 4.84949000e+00 8.56497000e+00	Si
atom  -1.68020000e-01 3.48865000e+00 7.38201000e+00	Si
atom  4.35207000e+00 2.01595000e+00 8.16044000e+00	Si
atom  1.97085000e+00 2.68590000e-01 8.18547000e+00	N
atom  5.38987000e+00 3.42969000e+00 8.39803000e+00	N
atom  5.43577000e+00 7.89164000e-01 8.88240000e+00	N
atom  7.07644000e+00 3.32581000e+00 8.64175000e+00	Si
atom  8.39267000e+00 9.85975000e-01 7.51441000e+00	Si
atom  7.88167000e+00 2.60743000e+00 7.30720000e+00	N
atom  7.66776000e+00 4.98466000e+00 8.32804000e+00	N
atom  -2.87411000e-01 9.77079000e+00 7.01853000e+00	N
atom  2.22005000e+00 1.01368000e+01 8.00840000e+00	N
atom  1.69335000e+00 7.36047000e+00 7.82535000e+00	N
atom  1.70041000e+00 5.69844000e+00 7.38794000e+00	Si
atom  1.20913000e+00 8.92005000e+00 7.16936000e+00	Si
atom  6.84394000e+00 8.03696000e+00 7.65840000e+00	N
atom  6.85258000e+00 6.51267000e+00 8.65525000e+00	Si
atom  5.18613000e+00 6.19206000e+00 7.99992000e+00	N
atom  4.77703000e+00 1.02123000e+01 8.61874000e+00	N
atom  3.88992000e+00 3.20956000e+00 1.06421000e+01	Si
atom  3.79816000e-01 1.42152000e+00 1.02701000e+01	N
atom  1.95500000e+00 1.15167000e+00 9.68186000e+00	Si
atom  3.00441000e-02 5.09577000e+00 9.92258000e+00	Si
atom  4.19432000e+00 4.86712000e+00 1.03078000e+01	N
atom  2.53248000e+00 3.19790000e-01 1.11731000e+01	N
atom  5.45561000e-01 4.02464000e+00 1.11801000e+01	N
atom  -1.85856000e-01 2.49313000e+00 1.15274000e+01	Si
atom  3.14676000e+00 2.36209000e+00 9.35783000e+00	N
atom  6.27817000e+00 1.30120000e+00 1.02975000e+01	Si
atom  7.60615000e+00 2.31517000e+00 9.90346000e+00	N
atom  8.61702000e+00 2.39316000e+00 1.13408000e+01	Si
atom  5.31704000e+00 2.42849000e+00 1.11207000e+01	N
atom  3.14949000e+00 1.00692000e+01 9.41529000e+00	Si
atom  2.66200000e+00 8.64928000e+00 1.03955000e+01	N
atom  1.38846000e+00 7.83125000e+00 9.52523000e+00	Si
atom  9.19739000e-01 6.52807000e+00 1.05817000e+01	N
atom  -1.00826000e-01 8.74960000e+00 9.37068000e+00	N
atom  6.53504000e+00 6.55022000e+00 1.03156000e+01	N
atom  7.46789000e+00 7.55118000e+00 1.14064000e+01	Si
atom  8.24917000e+00 8.86709000e+00 1.05571000e+01	N
atom  5.31114000e+00 5.86270000e+00 1.13671000e+01	Si
atom  8.21603000e-01 2.23605000e+00 1.29532000e+01	N
atom  2.40757000e+00 1.46351000e+00 1.24368000e+01	Si
atom  1.60593000e+00 3.91532000e+00 1.25976000e+01	Si
atom  2.95237000e+00 3.05527000e+00 1.20461000e+01	N
atom  3.15133000e+00 5.70173000e-01 1.37777000e+01	N
atom  7.57341000e+00 2.32710000e+00 1.27826000e+01	N
atom  5.99296000e+00 3.12066000e+00 1.25897000e+01	Si
atom  6.37643000e+00 4.80997000e+00 1.23252000e+01	N
atom  8.10560000e+00 4.96596000e+00 1.26997000e+01	Si
atom  9.22396000e+00 3.99976000e+00 1.15900000e+01	N
atom  1.44257000e+00 7.74504000e+00 1.29077000e+01	N
atom  2.93244000e+00 8.15566000e+00 1.20521000e+01	Si
atom  2.83180000e-01 6.60987000e+00 1.22108000e+01	Si
atom  3.80013000e+00 9.54053000e+00 1.27221000e+01	N
atom  4.39270000e+00 7.13721000e+00 1.22770000e+01	N
atom  8.60258000e+00 6.55855000e+00 1.22796000e+01	N
atom  5.17425000e+00 8.47740000e+00 1.30848000e+01	Si
atom  6.69108000e+00 8.76196000e+00 1.24158000e+01	N
atom  7.50555000e+00 1.00108000e+01 1.15902000e+01	Si
atom  1.42961000e-01 1.83619000e+00 1.44757000e+01	Si
atom  1.19824000e+00 2.06184000e+00 1.58056000e+01	N
atom  3.19314000e+00 3.92523000e+00 1.59619000e+01	N
atom  1.94146000e+00 5.06251000e+00 1.37851000e+01	N
atom  4.78452000e+00 3.80602000e+00 1.53063000e+01	Si
atom  4.69939000e+00 1.04376000e+00 1.44787000e+01	Si
atom  7.78465000e+00 2.47567000e+00 1.56869000e+01	N
atom  8.61932000e+00 4.41127000e+00 1.42542000e+01	N
atom  7.68778000e+00 4.36171000e+00 1.57895000e+01	Si
atom  8.60373000e+00 2.64408000e+00 1.41667000e+01	Si
atom  5.14204000e+00 2.73503000e+00 1.40278000e+01	N
atom  5.00425000e+00 1.42964000e+00 1.62127000e+01	N
atom  2.95014000e+00 5.38940000e+00 1.51462000e+01	Si
atom  2.48376000e+00 7.01118000e+00 1.57613000e+01	N
atom  1.32104000e+00 7.75667000e+00 1.47316000e+01	Si
atom  1.49133000e+00 9.39532000e+00 1.52225000e+01	N
atom  2.55100000e+00 1.02638000e+01 1.61726000e+01	Si
atom  -2.37622000e-01 9.63755000e+00 1.52783000e+01	Si
atom  -4.33326000e-01 7.91171000e+00 1.51318000e+01	N
atom  7.22441000e+00 6.08732000e+00 1.58401000e+01	N
atom  5.65817000e+00 6.68230000e+00 1.55459000e+01	Si
atom  9.14358000e+00 9.36354000e+00 1.56839000e+01	N
atom  5.42309000e+00 9.40152000e+00 1.60473000e+01	Si
atom  5.54643000e+00 8.23895000e+00 1.47243000e+01	N
atom  4.68250000e+00 5.47038000e+00 1.47597000e+01	N
atom  2.54408000e+00 1.60834000e+00 1.80165000e+01	N
atom  9.02389000e-01 3.83753000e+00 1.78519000e+01	N
atom  2.12747000e+00 2.99773000e+00 1.69312000e+01	Si
atom  3.98872000e+00 6.23817000e-01 1.73729000e+01	Si
atom  -5.93016000e-01 3.81503000e+00 1.68755000e+01	Si
atom  1.40112000e+00 3.99428000e-01 1.63697000e+01	Si
atom  8.93692000e+00 4.67523000e+00 1.70737000e+01	N
atom  6.01864000e+00 3.98495000e+00 1.66512000e+01	N
atom  6.50066000e+00 2.18909000e+00 1.68302000e+01	Si
atom  6.99104000e+00 1.66741000e+00 1.84165000e+01	N
atom  5.48877000e+00 5.18434000e+00 1.78557000e+01	Si
atom  3.27845000e+00 7.60123000e+00 1.71673000e+01	Si
atom  3.84562000e+00 9.23715000e+00 1.67563000e+01	N
atom  -4.91400000e-01 7.82166000e+00 1.85911000e+01	N
atom  4.83434000e+00 6.72091000e+00 1.70856000e+01	N
atom  8.88608000e+00 7.65704000e+00 1.77891000e+01	N
atom  8.31894000e+00 9.17556000e+00 1.71942000e+01	Si
atom  6.57495000e+00 8.86943000e+00 1.72135000e+01	N
atom  8.66677000e+00 6.35778000e+00 1.67045000e+01	Si
atom  5.76249000e+00 7.69464000e+00 1.82520000e+01	Si
atom  2.11535000e+00 3.12602000e+00 2.02202000e+01	N
atom  2.21167000e+00 1.43968000e+00 1.96679000e+01	Si
atom  8.53139000e-01 4.06495000e+00 1.95348000e+01	Si
atom  6.68434000e-01 7.88244000e-01 2.00083000e+01	N
atom  3.73105000e+00 3.90707000e+00 2.03135000e+01	Si
atom  3.33986000e+00 5.55629000e-01 2.05479000e+01	N
atom  4.29389000e+00 4.46990000e+00 1.87673000e+01	N
atom  6.98800000e+00 4.07970000e+00 2.01822000e+01	N
atom  7.75705000e+00 2.58031000e+00 1.97153000e+01	Si
atom  9.38007000e+00 2.82622000e+00 1.92037000e+01	N
atom  9.95580000e-01 5.73937000e+00 1.99170000e+01	N
atom  3.46984000e+00 9.00432000e+00 1.96929000e+01	Si
atom  9.64661000e-01 7.38057000e+00 1.94100000e+01	Si
atom  4.55648000e-01 8.36042000e+00 2.08750000e+01	N
atom  2.50572000e+00 7.88791000e+00 1.87003000e+01	N
atom  9.42446000e+00 5.55322000e+00 1.97041000e+01	N
atom  7.57159000e+00 5.63007000e+00 1.99431000e+01	Si
atom  5.10703000e+00 8.42639000e+00 1.96701000e+01	N
atom  6.68930000e+00 6.24051000e+00 1.86311000e+01	N
atom  1.26053000e+00 4.82606000e+00 2.26906000e+01	N
atom  2.37806000e-01 5.16051000e-01 2.16740000e+01	Si
atom  4.22026000e+00 1.27613000e+00 2.17689000e+01	Si
atom  1.18661000e+00 5.36084000e-01 2.31133000e+01	N
atom  4.38027000e+00 5.03705000e+00 2.30592000e+01	Si
atom  1.74475000e-01 5.25928000e+00 2.13787000e+01	Si
atom  6.09417000e+00 4.35827000e+00 2.30275000e+01	N
atom  7.09329000e+00 6.14159000e-01 2.22341000e+01	Si
atom  7.67651000e+00 2.10990000e+00 2.14589000e+01	N
atom  6.36010000e+00 3.42171000e+00 2.16610000e+01	Si
atom  4.80890000e+00 2.83300000e+00 2.11203000e+01	N
atom  9.35875000e+00 2.28847000e+00 2.20309000e+01	Si
atom  3.95670000e+00 5.23315000e+00 2.14343000e+01	N
atom  3.47626000e+00 8.83071000e+00 2.14531000e+01	N
atom  2.53296000e+00 9.23905000e+00 2.28057000e+01	Si
atom  2.28982000e-01 7.78280000e+00 2.24848000e+01	Si
atom  7.89848000e+00 6.24314000e+00 2.15131000e+01	N
atom  5.98600000e+00 8.05062000e+00 2.27558000e+01	N
atom  7.58756000e+00 7.31446000e+00 2.27907000e+01	Si
atom  8.67026000e+00 8.66186000e+00 2.28932000e+01	N
atom  5.26321000e+00 8.92492000e+00 2.13772000e+01	Si
atom  3.60614000e+00 3.84710000e+00 2.39856000e+01	N
atom  1.90537000e+00 4.22749000e+00 2.41403000e+01	Si
atom  1.15503000e+00 2.64818000e+00 2.42734000e+01	N
atom  2.36906000e+00 1.31837000e+00 2.41532000e+01	Si
atom  -1.60569000e-01 1.50562000e+00 2.39876000e+01	Si
atom  4.39899000e+00 3.54626000e+00 2.55648000e+01	Si
atom  3.94615000e+00 1.09373000e+00 2.34755000e+01	N
atom  6.96140000e+00 4.78890000e+00 2.44492000e+01	Si
atom  5.27876000e+00 8.46280000e-01 2.46336000e+01	Si
atom  8.19313000e+00 1.92427000e+00 2.44635000e+01	Si
atom  8.19684000e+00 3.54071000e+00 2.49460000e+01	N
atom  6.76958000e+00 1.42036000e+00 2.37614000e+01	N
atom  5.66823000e+00 4.75725000e+00 2.56569000e+01	N
atom  2.43049000e+00 7.00410000e+00 2.47488000e+01	Si
atom  1.57041000e+00 5.60323000e+00 2.52349000e+01	N
atom  3.88964000e+00 6.49770000e+00 2.39089000e+01	N
atom  3.85438000e+00 9.23942000e+00 2.38899000e+01	N
atom  1.63290000e+00 7.88524000e+00 2.34501000e+01	N
atom  4.82607000e+00 7.90146000e+00 2.40148000e+01	Si
atom  7.57560000e+00 6.39250000e+00 2.43088000e+01	N
atom  8.64453000e+00 9.53338000e+00 2.43993000e+01	Si
atom  5.43641000e+00 7.86882000e+00 2.56416000e+01	N
atom  2.68634000e-01 4.29085000e+00 2.72782000e+01	N
atom  3.45325000e+00 1.67950000e+00 2.68452000e+01	Si
atom  3.08278000e+00 3.41957000e+00 2.67556000e+01	N
atom  1.95074000e+00 4.18672000e+00 2.78578000e+01	Si
atom  2.39999000e+00 7.02439000e-01 2.57330000e+01	N
atom  6.37893000e+00 4.90572000e+00 2.73012000e+01	Si
atom  6.67546000e+00 3.20224000e+00 2.74831000e+01	N
atom  8.14636000e+00 8.41018000e-01 2.59293000e+01	N
atom  4.80541000e+00 1.88338000e+00 2.58041000e+01	N
atom  9.43030000e+00 1.24490000e+00 2.69562000e+01	Si
atom  9.49790000e+00 4.49166000e+00 2.73307000e+01	N
atom  1.93062000e-01 5.65531000e+00 2.61909000e+01	Si
atom  4.32871000e+00 8.35911000e+00 2.67831000e+01	Si
atom  2.78860000e+00 7.76567000e+00 2.62783000e+01	N
atom  2.49632000e-01 7.10491000e+00 2.70621000e+01	N
atom  1.85248000e+00 7.31351000e+00 2.76736000e+01	Si
atom  4.38745000e+00 1.00584000e+01 2.66225000e+01	N
atom  7.10826000e+00 7.22945000e+00 2.57143000e+01	Si
atom  7.86706000e+00 9.68505000e+00 2.73799000e+01	Si
atom  7.40971000e+00 6.21759000e+00 2.71287000e+01	N
atom  7.89918000e+00 8.70521000e+00 2.57907000e+01	N
atom  9.11544000e+00 6.17311000e+00 2.74610000e+01	Si
atom  1.72803000e+00 3.40733000e+00 2.94078000e+01	N
atom  2.40677000e+00 1.77351000e+00 2.97639000e+01	Si
atom  3.18058000e+00 1.05089000e+00 2.83867000e+01	N
atom  1.12143000e+00 5.82854000e-01 2.98479000e+01	N
atom  6.97101000e+00 1.78760000e+00 2.83256000e+01	Si
atom  7.75532000e+00 4.62249000e+00 2.93867000e+01	N
atom  6.15649000e+00 4.01581000e+00 2.97210000e+01	Si
atom  5.99354000e+00 2.32311000e+00 2.97972000e+01	N
atom  9.03381000e+00 3.61506000e+00 2.86855000e+01	Si
atom  5.25564000e+00 4.96871000e+00 2.86547000e+01	N
atom  8.74974000e+00 1.89163000e+00 2.83616000e+01	N
atom  4.02539000e+00 6.03288000e+00 2.89522000e+01	Si
atom  1.89935000e+00 8.22453000e+00 2.91246000e+01	N
atom  4.69656000e-01 9.30225000e+00 2.92351000e+01	Si
atom  2.50628000e+00 5.77465000e+00 2.81506000e+01	N
atom  9.25498000e+00 6.88350000e+00 2.90876000e+01	N
atom  6.98540000e+00 9.39788000e+00 2.89124000e+01	N
atom  8.10976000e+00 6.16721000e+00 3.01664000e+01	Si
atom  7.76923000e+00 1.01024000e+01 3.02980000e+01	Si
atom  4.64254000e+00 7.57280000e+00 2.83317000e+01	N
atom  5.72220000e+00 8.30194000e+00 2.95089000e+01	Si
atom  1.09671000e+00 3.26569000e+00 3.19578000e+01	N
atom  3.56717000e+00 2.09163000e+00 3.10943000e+01	N
atom  2.73793000e+00 2.97931000e+00 3.24579000e+01	Si
atom  4.92354000e-01 4.08367000e+00 3.05241000e+01	Si
atom  -2.71168000e-01 5.32505000e+00 3.16407000e+01	N
atom  8.39912000e+00 2.47032000e+00 3.19706000e+01	N
atom  5.87768000e+00 4.42150000e+00 3.14252000e+01	N
atom  5.25377000e+00 1.63226000e+00 3.11547000e+01	Si
atom  6.94770000e+00 3.40839000e+00 3.24211000e+01	Si
atom  -5.29950000e-01 8.78486000e+00 3.05751000e+01	N
atom  3.77855000e+00 6.47607000e+00 3.06172000e+01	N
atom  2.26241000e+00 8.71107000e+00 3.19017000e+01	N
atom  4.60728000e-01 9.07598000e+00 3.19998000e+01	Si
atom  3.04246000e+00 8.11100000e+00 3.04807000e+01	Si
atom  4.43837000e+00 9.11567000e+00 3.04590000e+01	N
atom  6.69777000e+00 1.01000000e+01 3.15833000e+01	N
atom  8.45084000e+00 6.05925000e+00 3.18520000e+01	N
atom  4.64509000e+00 5.52841000e+00 3.19335000e+01	Si
atom  7.06677000e+00 7.20653000e+00 3.22434000e+01	Si
atom  6.75102000e+00 7.28772000e+00 3.04709000e+01	N
atom  9.28610000e+00 9.35278000e+00 3.06154000e+01	N
atom  2.92758000e+00 2.03068000e+00 3.39109000e+01	N
atom  7.29384000e-02 4.21126000e+00 3.30444000e+01	Si
atom  2.61568000e+00 5.18713000e+00 3.42494000e+01	Si
atom  3.49181000e+00 4.52932000e+00 3.28418000e+01	N
atom  7.33586000e+00 3.88385000e+00 3.40697000e+01	N
atom  5.80427000e+00 1.30792000e+00 3.42520000e+01	Si
atom  8.61843000e+00 1.28976000e+00 3.33651000e+01	Si
atom  7.39372000e+00 6.81663000e-01 3.44650000e+01	N
atom  5.83342000e+00 2.15744000e+00 3.27046000e+01	N
atom  9.00379000e-01 5.31629000e+00 3.40934000e+01	N
atom  -2.02090000e-01 8.26132000e+00 3.34525000e+01	N
atom  3.10753000e+00 6.77026000e+00 3.45173000e+01	N
atom  3.32795000e+00 9.49359000e+00 3.31508000e+01	Si
atom  -2.19261000e-01 6.67127000e+00 3.43028000e+01	Si
atom  2.21683000e+00 1.01023000e+01 3.43246000e+01	N
atom  9.05868000e+00 7.92672000e+00 3.46189000e+01	Si
atom  7.59157000e+00 9.98257000e+00 3.30775000e+01	Si
atom  9.50830000e+00 6.31144000e+00 3.42394000e+01	N
atom  5.48386000e+00 6.72114000e+00 3.28726000e+01	N
atom  4.61074000e+00 8.93126000e+00 3.41699000e+01	N
atom  4.71136000e+00 7.25035000e+00 3.43421000e+01	Si
atom  7.92252000e+00 8.27180000e+00 3.33004000e+01	N
atom  2.47026000e+00 1.85362000e+00 3.68696000e+01	N
atom  3.17838000e+00 4.35881000e+00 3.56438000e+01	N
atom  3.27687000e+00 2.56607000e+00 3.55299000e+01	Si
atom  3.80204000e-01 1.19431000e+00 3.55064000e+01	N
atom  6.30866000e-01 1.36766000e+00 3.72713000e+01	Si
atom  7.51815000e+00 2.83133000e+00 3.68533000e+01	N
atom  5.03492000e+00 2.15656000e+00 3.55552000e+01	N
atom  5.76634000e+00 2.68088000e+00 3.69911000e+01	Si
atom  8.38115000e+00 3.29800000e+00 3.53791000e+01	Si
atom  4.29705000e+00 5.44180000e+00 3.65290000e+01	Si
atom  2.92729000e+00 9.24604000e+00 3.67707000e+01	N
atom  -4.32363000e-01 7.16785000e+00 3.59484000e+01	N
atom  5.41984000e+00 6.49280000e+00 3.57562000e+01	N
atom  8.21619000e+00 7.81978000e+00 3.61387000e+01	N
atom  5.77393000e+00 9.00478000e+00 3.67851000e+01	N
atom  5.44235000e+00 9.86848000e+00 3.53044000e+01	Si
atom  6.56367000e+00 7.47678000e+00 3.66715000e+01	Si
atom  3.48159000e+00 1.26125000e+00 3.81886000e+01	Si
atom  -2.97097000e-02 2.71769000e+00 3.81273000e+01	N
atom  -3.54470000e-01 4.06146000e+00 3.92360000e+01	Si
atom  2.78140000e+00 1.85917000e+00 3.95994000e+01	N
atom  5.19945000e+00 1.68116000e+00 3.82824000e+01	N
atom  8.26138000e+00 2.84409000e+00 3.84396000e+01	Si
atom  7.89359000e+00 1.25251000e+00 3.90240000e+01	N
atom  6.08855000e+00 5.08553000e+00 3.87620000e+01	Si
atom  7.13821000e+00 3.86501000e+00 3.94138000e+01	N
atom  6.26178000e+00 1.04479000e+00 3.95643000e+01	Si
atom  5.26449000e+00 4.26839000e+00 3.74555000e+01	N
atom  -1.66148000e-01 5.56268000e+00 3.85493000e+01	N
atom  1.29885000e+00 7.98989000e+00 3.86311000e+01	N
atom  7.00386000e-01 9.59003000e+00 3.89278000e+01	Si
atom  4.01567000e+00 8.20789000e+00 3.93016000e+01	N
atom  3.76960000e+00 6.49015000e+00 3.94884000e+01	Si
atom  2.93607000e+00 7.98166000e+00 3.78312000e+01	Si
atom  8.17067000e-01 6.62076000e+00 3.95510000e+01	Si
atom  3.49251000e+00 6.37832000e+00 3.77617000e+01	N
atom  -1.82621000e-01 1.00359000e+01 3.74820000e+01	N
atom  6.03647000e+00 1.00787000e+01 3.81370000e+01	Si
atom  7.06017000e+00 9.43208000e+00 3.94308000e+01	N
atom  7.36740000e+00 7.63372000e+00 3.94414000e+01	Si
atom  9.04138000e+00 7.54059000e+00 3.90523000e+01	N
atom  6.70234000e+00 6.64414000e+00 3.82191000e+01	N
atom  9.45965000e+00 7.89132000e+00 3.74153000e+01	Si
atom  1.60862000e+00 1.28310000e+01 1.17157000e+00	N
atom  1.05736000e-01 1.29601000e+01 2.01935000e+00	Si
atom  3.10637000e+00 1.32597000e+01 2.07587000e+00	Si
atom  4.61571000e+00 1.29440000e+01 1.18151000e+00	N
atom  6.31409000e+00 1.32757000e+01 1.21545000e+00	Si
atom  7.52592000e+00 1.20751000e+01 1.44298000e+00	N
atom  6.82672000e+00 1.48871000e+01 1.47904000e+00	N
atom  7.97598000e+00 1.05979000e+01 5.36265000e-01	Si
atom  3.58659000e+00 1.64422000e+01 2.05098000e+00	Si
atom  3.80382000e+00 1.97749000e+01 1.34555000e+00	N
atom  8.39821000e-01 1.85736000e+01 1.65687000e+00	N
atom  2.78604000e+00 1.68410000e+01 5.14091000e-01	N
atom  1.35127000e+00 1.77948000e+01 2.52297000e-01	Si
atom  6.25493000e+00 1.65086000e+01 9.82127000e-01	Si
atom  7.02225000e+00 1.78361000e+01 1.02928000e-01	N
atom  8.62152000e+00 1.82606000e+01 2.07498000e-01	Si
atom  9.02860000e+00 1.89336000e+01 1.75371000e+00	N
atom  5.24160000e+00 1.70459000e+01 2.27920000e+00	N
atom  2.98475000e+00 1.19537000e+01 3.32470000e+00	N
atom  7.66075000e-01 1.34375000e+01 3.57274000e+00	N
atom  3.22734000e+00 1.49622000e+01 2.79013000e+00	N
atom  2.49979000e-01 1.50161000e+01 3.99032000e+00	Si
atom  8.68706000e+00 1.21238000e+01 2.84406000e+00	Si
atom  8.18290000e+00 1.37120000e+01 3.48523000e+00	N
atom  8.35712000e+00 1.10387000e+01 4.15165000e+00	N
atom  8.36892000e+00 1.49996000e+01 2.35273000e+00	Si
atom  6.67180000e+00 1.09148000e+01 4.57961000e+00	Si
atom  2.92565000e+00 1.54279000e+01 4.43782000e+00	Si
atom  7.22908000e-02 1.83939000e+01 4.16114000e+00	N
atom  9.86527000e-01 1.73565000e+01 3.27209000e+00	Si
atom  2.67075000e+00 1.76228000e+01 3.00517000e+00	N
atom  1.03660000e-01 1.60024000e+01 2.52671000e+00	N
atom  2.48838000e+00 1.91737000e+01 2.20357000e+00	Si
atom  5.01186000e+00 2.02395000e+01 2.50176000e+00	Si
atom  5.20767000e+00 1.76731000e+01 3.87361000e+00	Si
atom  8.53487000e+00 1.65501000e+01 3.13938000e+00	N
atom  4.68567000e+00 1.92974000e+01 3.89892000e+00	N
atom  9.76465000e+00 1.78135000e+01 2.86826000e+00	Si
atom  1.22202000e+00 1.16809000e+01 5.82307000e+00	N
atom  2.65011000e+00 1.39673000e+01 5.43507000e+00	N
atom  3.94285000e+00 1.15164000e+01 6.40455000e+00	N
atom  -4.17515000e-01 1.11705000e+01 5.93228000e+00	Si
atom  1.89594000e+00 1.26932000e+01 4.57313000e+00	Si
atom  5.30803000e+00 1.25935000e+01 6.49086000e+00	Si
atom  8.63407000e+00 1.34685000e+01 6.52751000e+00	N
atom  7.54968000e+00 1.37059000e+01 5.10126000e+00	Si
atom  6.22797000e+00 1.25872000e+01 5.09331000e+00	N
atom  4.88334000e+00 1.42715000e+01 6.92031000e+00	N
atom  6.92842000e+00 1.52770000e+01 5.40355000e+00	N
atom  1.39914000e+00 1.62229000e+01 4.72607000e+00	N
atom  2.37848000e+00 1.87299000e+01 5.58144000e+00	N
atom  1.72414000e+00 1.71858000e+01 6.20628000e+00	Si
atom  3.94229000e+00 1.96156000e+01 5.47799000e+00	Si
atom  1.12345000e+00 1.96821000e+01 4.68782000e+00	Si
atom  4.34681000e+00 1.63929000e+01 4.78567000e+00	N
atom  8.16343000e+00 2.00331000e+01 6.13070000e+00	N
atom  9.44981000e+00 2.01429000e+01 4.94235000e+00	Si
atom  5.37408000e+00 1.57173000e+01 6.05389000e+00	Si
atom  7.01420000e+00 1.87676000e+01 6.18968000e+00	Si
atom  5.47283000e+00 1.95731000e+01 6.55996000e+00	N
atom  7.98546000e+00 1.64995000e+01 4.84658000e+00	Si
atom  6.76090000e+00 1.77976000e+01 4.76907000e+00	N
atom  9.53752000e+00 1.60519000e+01 5.52442000e+00	N
atom  2.60746000e+00 1.30195000e+01 8.14114000e+00	N
atom  2.34983000e+00 1.15978000e+01 7.09505000e+00	Si
atom  3.12685000e+00 1.42995000e+01 7.10166000e+00	Si
atom  3.82548000e+00 1.49327000e+01 9.11878000e+00	N
atom  6.30462000e+00 1.24255000e+01 7.94828000e+00	N
atom  7.98732000e+00 1.24137000e+01 7.81829000e+00	Si
atom  5.41296000e+00 1.41122000e+01 8.64349000e+00	Si
atom  8.36575000e+00 1.07271000e+01 7.42955000e+00	N
atom  6.84329000e+00 1.50051000e+01 8.97584000e+00	N
atom  8.72968000e+00 1.29756000e+01 9.25590000e+00	N
atom  5.66243000e+00 1.14822000e+01 9.28583000e+00	Si
atom  3.92842000e+00 1.63589000e+01 8.30262000e+00	Si
atom  7.78244000e-01 1.78814000e+01 7.56367000e+00	N
atom  2.78535000e+00 1.60503000e+01 7.02990000e+00	N
atom  1.64167000e+00 1.76667000e+01 9.18785000e+00	Si
atom  -1.88215000e-01 1.89011000e+01 8.59699000e+00	Si
atom  3.32166000e+00 1.77583000e+01 9.14144000e+00	N
atom  9.25410000e+00 1.81335000e+01 8.37610000e+00	Si
atom  7.95695000e+00 1.76129000e+01 7.16593000e+00	N
atom  8.86699000e+00 1.98789000e+01 8.75245000e+00	N
atom  7.03344000e+00 1.66419000e+01 8.28952000e+00	Si
atom  5.43216000e+00 1.66949000e+01 7.51566000e+00	N
atom  3.24849000e+00 1.14049000e+01 1.05106000e+01	N
atom  1.90750000e+00 1.37577000e+01 1.07775000e+01	N
atom  1.83795000e-01 1.17654000e+01 1.01731000e+01	N
atom  3.25301000e+00 1.32097000e+01 9.80415000e+00	Si
atom  7.26696000e+00 1.39035000e+01 1.16276000e+01	N
atom  5.05801000e+00 1.29989000e+01 9.97996000e+00	N
atom  6.52534000e+00 1.11656000e+01 1.07807000e+01	N
atom  8.06698000e+00 1.42704000e+01 1.01439000e+01	Si
atom  5.93896000e+00 1.27226000e+01 1.14656000e+01	Si
atom  9.44689000e+00 1.52371000e+01 1.06414000e+01	N
atom  1.79703000e+00 1.54204000e+01 1.11270000e+01	Si
atom  1.38748000e+00 1.95842000e+01 1.12923000e+01	Si
atom  1.02847000e+00 1.61768000e+01 9.77063000e+00	N
atom  4.20405000e+00 1.86385000e+01 1.03570000e+01	Si
atom  1.25407000e+00 1.93336000e+01 9.61079000e+00	N
atom  3.15871000e+00 1.94673000e+01 1.14889000e+01	N
atom  5.19414000e+00 1.76455000e+01 1.14060000e+01	N
atom  7.75820000e+00 1.74648000e+01 9.62546000e+00	N
atom  6.62576000e+00 1.83229000e+01 1.05938000e+01	Si
atom  7.84103000e+00 1.92817000e+01 1.14235000e+01	N
atom  5.61046000e+00 1.92646000e+01 9.44924000e+00	N
atom  9.02531000e+00 1.69606000e+01 1.08911000e+01	Si
atom  2.02473000e+00 1.17297000e+01 1.26905000e+01	N
atom  3.58662000e+00 1.11961000e+01 1.22009000e+01	Si
atom  -3.78476000e-01 1.29244000e+01 1.24838000e+01	N
atom  1.07462000e+00 1.24249000e+01 1.14606000e+01	Si
atom  4.72606000e+00 1.26267000e+01 1.27187000e+01	N
atom  8.56878000e+00 1.07533000e+01 1.27097000e+01	N
atom  7.13081000e+00 1.52232000e+01 1.28116000e+01	Si
atom  4.73598000e+00 1.39955000e+01 1.38293000e+01	Si
atom  4.77279000e-01 1.55010000e+01 1.23547000e+01	N
atom  2.82787000e+00 1.63687000e+01 1.21441000e+01	N
atom  3.92411000e+00 1.95642000e+01 1.30946000e+01	Si
atom  1.37265000e+00 1.68225000e+01 1.30096000e+01	Si
atom  7.83263000e-01 1.82172000e+01 1.22053000e+01	N
atom  4.43113000e+00 1.67494000e+01 1.27238000e+01	Si
atom  4.10882000e+00 1.80632000e+01 1.38851000e+01	N
atom  7.69798000e+00 1.67639000e+01 1.21633000e+01	N
atom  8.21722000e+00 1.82644000e+01 1.27877000e+01	Si
atom  5.36911000e+00 1.54336000e+01 1.31328000e+01	N
atom  3.16203000e+00 1.15647000e+01 1.52485000e+01	N
atom  5.70377000e-01 1.27331000e+01 1.49029000e+01	N
atom  2.10199000e+00 1.25535000e+01 1.42471000e+01	Si
atom  2.89766000e+00 1.41246000e+01 1.42552000e+01	N
atom  4.53608000e+00 1.21945000e+01 1.58237000e+01	Si
atom  8.96695000e+00 1.07269000e+01 1.45518000e+01	Si
atom  5.88247000e+00 1.10451000e+01 1.56635000e+01	N
atom  8.32891000e+00 1.23044000e+01 1.50118000e+01	N
atom  5.55293000e+00 1.36073000e+01 1.54058000e+01	N
atom  6.84240000e+00 1.24580000e+01 1.57813000e+01	Si
atom  9.40617000e+00 1.34459000e+01 1.41818000e+01	Si
atom  8.21531000e+00 1.48782000e+01 1.41394000e+01	N
atom  2.54572000e+00 1.54311000e+01 1.54199000e+01	Si
atom  4.19169000e+00 1.59455000e+01 1.58264000e+01	N
atom  4.07247000e+00 1.76951000e+01 1.55757000e+01	Si
atom  1.36135000e+00 1.65318000e+01 1.46592000e+01	N
atom  -3.00927000e-01 1.66783000e+01 1.53931000e+01	Si
atom  6.85008000e+00 1.63164000e+01 1.60948000e+01	N
atom  7.49919000e+00 1.90546000e+01 1.42107000e+01	N
atom  9.31164000e+00 1.71837000e+01 1.47128000e+01	N
atom  8.45582000e+00 1.59352000e+01 1.55607000e+01	Si
atom  8.86098000e+00 1.87671000e+01 1.52947000e+01	Si
atom  1.83108000e+00 1.10355000e+01 1.76658000e+01	N
atom  1.10292000e-01 1.13862000e+01 1.78504000e+01	Si
atom  1.63614000e+00 1.47948000e+01 1.67517000e+01	N
atom  -2.86549000e-02 1.31019000e+01 1.76088000e+01	N
atom  4.23802000e+00 1.24255000e+01 1.74980000e+01	N
atom  1.18097000e+00 1.42043000e+01 1.83097000e+01	Si
atom  1.66961000e-01 1.39304000e+01 1.60884000e+01	Si
atom  8.80512000e+00 1.03986000e+01 1.83420000e+01	N
atom  7.02428000e+00 1.25813000e+01 1.75216000e+01	N
atom  5.58041000e+00 1.47803000e+01 1.81011000e+01	N
atom  5.59117000e+00 1.30933000e+01 1.83764000e+01	Si
atom  8.39520000e+00 1.20927000e+01 1.84380000e+01	Si
atom  5.64105000e+00 1.51090000e+01 1.63894000e+01	Si
atom  1.36912000e+00 1.96676000e+01 1.83934000e+01	N
atom  1.33844000e+00 1.80450000e+01 1.74643000e+01	Si
atom  -1.95242000e-01 1.76647000e+01 1.68162000e+01	N
atom  2.63431000e+00 1.82206000e+01 1.64403000e+01	N
atom  4.35186000e+00 1.97545000e+01 1.74701000e+01	Si
atom  5.25073000e+00 1.85638000e+01 1.64655000e+01	N
atom  9.32508000e+00 1.54886000e+01 1.69824000e+01	N
atom  8.25137000e+00 1.86640000e+01 1.69020000e+01	N
atom  9.02247000e+00 2.00537000e+01 1.77017000e+01	Si
atom  6.71797000e+00 1.78272000e+01 1.69651000e+01	Si
atom  3.53793000e+00 1.07753000e+01 1.98206000e+01	N
atom  2.33004000e+00 1.33119000e+01 1.92473000e+01	N
atom  2.39573000e-01 1.51127000e+01 1.94920000e+01	N
atom  -2.30920000e-01 1.07673000e+01 1.94258000e+01	N
atom  2.96353000e+00 1.18993000e+01 1.85967000e+01	Si
atom  5.45912000e+00 1.28111000e+01 2.00723000e+01	N
atom  8.22279000e+00 1.25939000e+01 2.00195000e+01	N
atom  7.06952000e+00 1.51147000e+01 2.05779000e+01	N
atom  6.96411000e+00 1.34292000e+01 2.08717000e+01	Si
atom  2.45343000e+00 1.86463000e+01 1.94386000e+01	Si
atom  1.07443000e+00 1.64008000e+01 2.02710000e+01	Si
atom  1.75011000e+00 1.71871000e+01 1.88375000e+01	N
atom  4.00675000e+00 1.89143000e+01 1.88668000e+01	N
atom  5.96319000e+00 1.94762000e+01 2.05737000e+01	N
atom  8.36717000e+00 1.97578000e+01 1.92803000e+01	N
atom  4.76349000e+00 1.67468000e+01 2.03841000e+01	N
atom  6.57482000e+00 1.74604000e+01 1.87819000e+01	N
atom  5.32623000e+00 1.82144000e+01 1.96773000e+01	Si
atom  5.97925000e+00 1.58078000e+01 1.94998000e+01	Si
atom  8.06480000e+00 1.80627000e+01 1.94948000e+01	Si
atom  3.27527000e+00 1.25474000e+01 2.18549000e+01	N
atom  8.23918000e-01 1.28591000e+01 2.15065000e+01	N
atom  1.80533000e+00 1.22333000e+01 2.28077000e+01	Si
atom  1.43222000e+00 1.05634000e+01 2.30097000e+01	N
atom  4.47956000e+00 1.16381000e+01 2.09729000e+01	Si
atom  2.31812000e+00 1.37252000e+01 2.09463000e+01	Si
atom  6.72886000e+00 1.31111000e+01 2.25665000e+01	N