lattice_vector  3.98810292e+01 0.00000000e+00 0.00000000e+00
lattice_vector  2.44200874e-15 3.98810292e+01 0.00000000e+00
lattice_vector  2.44200874e-15 2.44200874e-15 3.98810292e+01
atom  7.14210000e-01 2.26779000e+00 1.80977000e+00	N
atom  6.07940000e-01 3.32870000e+00 4.66187000e-01	Si
atom  1.41335000e+00 4.81719000e+00 8.18553000e-01	N
atom  1.20803000e+00 1.71073000e+00 4.59325000e+00	N
atom  1.77336000e+00 4.21583000e+00 3.53550000e+00	N
atom  1.85723000e+00 2.51160000e+00 3.14265000e+00	Si
atom  -2.08304000e-01 9.56488000e+00 3.56809000e+00	Si
atom  5.51516000e-01 9.35822000e+00 2.02110000e+00	N
atom  1.06666000e+00 6.83182000e+00 2.59082000e+00	N
atom  4.57108000e-01 7.83268000e+00 1.29602000e+00	Si
atom  -1.71376000e-01 6.61944000e+00 3.80937000e+00	Si
atom  1.57070000e+00 4.92411000e+00 5.07328000e+00	Si
atom  8.26707000e-01 3.81600000e+00 6.18314000e+00	N
atom  1.02471000e+00 4.24920000e+00 9.27838000e+00	N
atom  1.88473000e+00 2.39237000e+00 6.02172000e+00	Si
atom  9.62209000e-01 1.01286000e+01 4.84944000e+00	N
atom  1.61178000e+00 9.73433000e+00 7.69851000e+00	N
atom  1.76486000e+00 6.93043000e+00 7.61330000e+00	N
atom  -4.96918000e-02 8.03952000e+00 9.52399000e+00	N
atom  1.59872000e-01 6.84614000e+00 6.94984000e+00	Si
atom  3.57082000e-01 9.75916000e+00 6.47796000e+00	Si
atom  1.52783000e+00 8.25941000e+00 8.74335000e+00	Si
atom  3.22602000e-01 6.13346000e+00 5.34571000e+00	N
atom  1.15591000e+00 1.15066000e+00 9.59591000e+00	N
atom  8.54716000e-01 2.78802000e+00 1.17428000e+01	N
atom  1.44717000e+00 4.16733000e+00 1.43650000e+01	N
atom  1.47109000e+00 2.73710000e+00 1.01339000e+01	Si
atom  2.72976000e-01 6.63865000e-01 1.38103000e+01	Si
atom  -9.09580000e-02 5.02800000e+00 1.43908000e+01	Si
atom  2.00121000e+00 2.82931000e+00 1.32150000e+01	Si
atom  1.29630000e+00 7.60619000e+00 1.20357000e+01	N
atom  -1.54656000e-01 8.18920000e+00 1.12783000e+01	Si
atom  5.58495000e-03 6.67162000e+00 1.50170000e+01	N
atom  3.43409000e-01 3.14566000e+00 1.93521000e+01	N
atom  1.37949000e+00 2.70697000e+00 1.81053000e+01	Si
atom  6.05331000e-01 1.40453000e+00 1.72939000e+01	N
atom  1.21627000e+00 6.74503000e+00 1.76099000e+01	N
atom  -5.90587000e-02 6.84636000e+00 1.88083000e+01	Si
atom  1.40801000e+00 7.27492000e+00 1.59355000e+01	Si
atom  9.45925000e-01 3.60505000e+00 2.18535000e+01	N
atom  9.21277000e-01 4.52591000e+00 2.03511000e+01	Si
atom  5.75906000e-02 1.42533000e+00 2.39890000e+01	N
atom  1.53814000e+00 5.46979000e-01 2.39973000e+01	Si
atom  -2.04109000e-01 2.55733000e+00 2.26751000e+01	Si
atom  1.31979000e+00 6.80331000e+00 2.39163000e+01	Si
atom  4.88848000e-01 8.67541000e+00 2.17058000e+01	N
atom  3.67365000e-01 6.13998000e+00 2.03367000e+01	N
atom  3.46822000e-01 9.63577000e+00 2.01062000e+01	Si
atom  -3.38564000e-01 6.62989000e+00 2.32858000e+01	N
atom  1.40114000e+00 8.29924000e+00 2.47856000e+01	N
atom  -1.55883000e-01 2.53500000e+00 2.90193000e+01	N
atom  1.34237000e+00 4.40151000e+00 2.73498000e+01	N
atom  1.34414000e+00 3.12344000e+00 2.85147000e+01	Si
atom  1.69161000e+00 6.52823000e-01 2.67137000e+01	Si
atom  -1.33951000e-01 7.37301000e-01 2.65983000e+01	N
atom  -2.35307000e-01 4.90198000e+00 2.67430000e+01	Si
atom  8.51547000e-01 7.70448000e+00 2.63585000e+01	Si
atom  9.49384000e-02 8.97061000e+00 2.73323000e+01	N
atom  -2.31846000e-01 6.39922000e+00 2.59252000e+01	N
atom  6.13345000e-01 9.68574000e+00 2.88548000e+01	Si
atom  -5.41519000e-01 9.93714000e+00 2.25269000e+01	Si
atom  -3.55242000e-01 7.10853000e+00 2.16126000e+01	Si
atom  1.11941000e+00 8.45606000e+00 2.98838000e+01	N
atom  1.43832000e+00 4.59307000e+00 3.10745000e+01	Si
atom  -2.06947000e-01 4.18829000e+00 3.14128000e+01	N
atom  7.49421000e-01 2.93997000e+00 3.45450000e+01	N
atom  1.09653000e+00 9.66852000e+00 3.35479000e+01	Si
atom  6.24540000e-01 6.82532000e+00 3.41715000e+01	Si
atom  2.85631000e-01 7.25458000e+00 3.08874000e+01	Si
atom  -6.92081000e-02 6.53551000e+00 3.25856000e+01	N
atom  1.60875000e+00 6.15390000e+00 3.04617000e+01	N
atom  -4.06699000e-02 1.01876000e+01 3.24616000e+01	N
atom  4.64115000e-01 8.48050000e+00 3.46937000e+01	N
atom  1.37413000e+00 2.93860000e-01 3.12453000e+01	N
atom  1.79049000e+00 2.98068000e+00 3.91160000e+01	N
atom  5.89909000e-01 1.31243000e+00 3.52653000e+01	Si
atom  1.80778000e+00 1.31953000e+00 3.64721000e+01	N
atom  1.77005000e+00 6.94013000e+00 3.70116000e+01	N
atom  5.40584000e-01 9.71072000e+00 3.89868000e+01	Si
atom  2.10122000e-01 9.49472000e+00 3.62041000e+01	Si
atom  1.83806000e-02 6.77893000e+00 3.69286000e+01	Si
atom  1.28710000e+00 9.93818000e+00 3.74379000e+01	N
atom  -1.56998000e-01 5.90506000e+00 3.54488000e+01	N
atom  1.16484000e+00 8.13156000e+00 3.95355000e+01	N
atom  -4.12946000e-01 4.17237000e+00 3.51529000e+01	Si
atom  1.30217000e+00 1.34629000e+01 1.57138000e+00	N
atom  4.56672000e-01 1.38435000e+01 3.12588000e+00	Si
atom  1.03210000e+00 1.29472000e+01 4.51683000e+00	N
atom  7.87600000e-01 1.25698000e+01 2.19615000e-01	Si
atom  1.32379000e+00 1.08444000e+01 1.31130000e-01	N
atom  1.34874000e+00 1.52847000e+01 1.36527000e+00	Si
atom  9.30677000e-01 1.55289000e+01 3.05247000e+00	N
atom  8.99746000e-01 1.83101000e+01 3.53185000e+00	N
atom  4.40258000e-01 1.96100000e+01 2.47239000e+00	Si
atom  1.75726000e-02 1.68953000e+01 3.75878000e+00	Si
atom  -2.03048000e-03 1.60416000e+01 5.67928000e-01	N
atom  -4.55381000e-02 1.17075000e+01 4.85876000e+00	Si
atom  1.19318000e+00 1.35489000e+01 8.26869000e+00	Si
atom  1.16754000e+00 1.44305000e+01 6.77864000e+00	N
atom  5.06275000e-01 1.93038000e+01 8.64960000e+00	N
atom  1.35961000e+00 1.60290000e+01 6.12857000e+00	Si
atom  -1.34477000e-01 1.65794000e+01 5.41278000e+00	N
atom  1.98930000e+00 1.87308000e+01 7.62933000e+00	Si
atom  1.56486000e+00 1.69868000e+01 7.62373000e+00	N
atom  -2.73999000e-01 1.30400000e+01 8.90929000e+00	N
atom  1.60162000e+00 2.01493000e+01 1.32750000e+00	N
atom  5.78058000e-01 1.25991000e+01 1.18000000e+01	N
atom  4.90759000e-01 1.10678000e+01 1.25145000e+01	Si
atom  1.64256000e+00 1.37575000e+01 1.25199000e+01	Si
atom  1.60389000e+00 1.34990000e+01 1.42299000e+01	N
atom  -2.05884000e-01 1.14111000e+01 1.41317000e+01	N
atom  1.39004000e+00 1.54432000e+01 1.21470000e+01	N
atom  9.39790000e-01 1.84737000e+01 1.02845000e+01	Si
atom  1.51982000e+00 1.98066000e+01 1.12536000e+01	N
atom  -2.56831000e-01 1.61248000e+01 1.18721000e+01	Si
atom  -4.26507000e-01 1.75893000e+01 1.08545000e+01	N
atom  3.68578000e-02 1.28968000e+01 1.48673000e+01	Si
atom  3.32860000e-01 1.24900000e+01 1.65535000e+01	N
atom  1.88841000e+00 1.30734000e+01 1.97062000e+01	Si
atom  1.98317000e+00 1.59526000e+01 1.49872000e+01	N
atom  1.07143000e-01 1.57983000e+01 1.48454000e+01	Si
atom  -1.05437000e-01 1.89397000e+01 1.89344000e+01	Si
atom  1.69038000e+00 1.72630000e+01 1.71533000e+01	Si
atom  -2.94471000e-03 1.67909000e+01 1.63024000e+01	N
atom  1.42678000e+00 1.84650000e+01 1.83981000e+01	N
atom  1.60461000e+00 1.98447000e+01 1.56664000e+01	Si
atom  -1.51091000e-01 1.96035000e+01 1.55690000e+01	N
atom  3.04893000e-01 1.22956000e+01 2.42834000e+01	Si
atom  2.90043000e-01 1.24703000e+01 2.14281000e+01	Si
atom  5.26660000e-01 1.06420000e+01 2.37044000e+01	N
atom  -2.74726000e-01 1.31726000e+01 2.29230000e+01	N
atom  1.31959000e+00 1.52276000e+01 2.39302000e+01	N
atom  -5.60528000e-02 1.57070000e+01 2.18382000e+01	N
atom  9.34391000e-01 1.78920000e+01 2.28432000e+01	N
atom  4.81307000e-01 1.91079000e+01 2.17391000e+01	Si
atom  1.45428000e+00 1.62438000e+01 2.25462000e+01	Si
atom  1.79286000e+00 1.82792000e+01 2.42233000e+01	Si
atom  1.95846000e+00 1.97227000e+01 2.09867000e+01	N
atom  5.29806000e-03 1.54078000e+01 2.94209000e+01	N
atom  6.66863000e-01 1.93580000e+01 2.75928000e+01	N
atom  -6.63391000e-02 1.25344000e+01 2.81129000e+01	N
atom  1.47482000e+00 1.23966000e+01 2.89682000e+01	Si
atom  8.11745000e-01 1.48771000e+01 2.66513000e+01	N
atom  1.84782000e+00 1.27460000e+01 2.49213000e+01	N
atom  1.36584000e+00 1.51466000e+01 2.83102000e+01	Si
atom  9.24545000e-02 1.63750000e+01 2.59394000e+01	Si
atom  1.35388000e+00 1.75561000e+01 2.56993000e+01	N
atom  1.73500000e-01 1.33255000e+01 1.98273000e+01	N
atom  1.94323000e-02 1.42364000e+01 3.36945000e+01	Si
atom  5.61483000e-01 1.49126000e+01 3.22110000e+01	N
atom  1.42194000e+00 1.26297000e+01 3.07098000e+01	N
atom  1.64084000e+00 1.33906000e+01 3.37958000e+01	N
atom  1.47960000e+00 1.10136000e+01 3.46174000e+01	N
atom  1.81814000e+00 1.36150000e+01 3.20496000e+01	Si
atom  6.43814000e-01 1.78368000e+01 3.34863000e+01	N
atom  1.97573000e-01 1.60827000e+01 3.09975000e+01	Si
atom  1.66034000e+00 1.70097000e+01 3.10397000e+01	N
atom  1.01655000e-01 1.19580000e+01 3.50370000e+01	Si
atom  1.04014000e+00 1.42190000e+01 3.73470000e+01	Si
atom  3.73589000e-02 1.32719000e+01 3.62726000e+01	N
atom  1.62179000e+00 1.33269000e+01 3.87461000e+01	N
atom  -3.59649000e-01 1.51171000e+01 3.78972000e+01	N
atom  1.94432000e-01 1.65159000e+01 3.87937000e+01	Si
atom  3.49635000e-01 1.76286000e+01 3.61697000e+01	N
atom  -2.08801000e-01 1.89888000e+01 3.71327000e+01	Si
atom  1.82040000e+00 1.67751000e+01 3.84477000e+01	N
atom  9.83754000e-01 2.23273000e+01 3.72710000e+00	Si
atom  1.15660000e+00 2.18416000e+01 9.97421000e-01	Si
atom  8.81573000e-03 2.09760000e+01 3.46958000e+00	N
atom  9.70290000e-05 2.36563000e+01 4.24195000e+00	N
atom  1.24791000e+00 2.48014000e+01 4.63965000e+00	Si
atom  1.76434000e+00 2.28614000e+01 2.29838000e+00	N
atom  -2.74839000e-01 2.42253000e+01 8.70922000e+00	N
atom  9.30900000e-01 2.54349000e+01 9.36658000e-01	Si
atom  8.71576000e-01 2.71767000e+01 1.04586000e+00	N
atom  4.17837000e-01 2.89985000e+01 3.01369000e+00	N
atom  8.34619000e-01 2.61841000e+01 3.75166000e+00	N
atom  1.58325000e-01 2.72966000e+01 2.67323000e+00	Si
atom  1.81557000e+00 2.99593000e+01 4.73098000e+00	N
atom  8.55663000e-02 3.01506000e+01 4.28364000e+00	Si
atom  -6.98316000e-02 2.38401000e+01 7.05895000e+00	Si
atom  -7.94118000e-02 2.20994000e+01 7.18196000e+00	N
atom  7.91776000e-01 2.10476000e+01 8.26670000e+00	Si
atom  1.27677000e+00 2.47457000e+01 6.38979000e+00	N
atom  4.54881000e-01 2.18129000e+01 9.80132000e+00	N
atom  2.90053000e-01 2.56667000e+01 9.52315000e+00	Si
atom  1.65317000e+00 2.63202000e+01 8.62682000e+00	N
atom  1.28943000e+00 2.90349000e+01 7.16761000e+00	N
atom  -2.33408000e-01 2.99752000e+01 7.33034000e+00	Si
atom  1.11266000e+00 2.87667000e+01 9.86424000e+00	N
atom  1.63935000e+00 2.97534000e+01 -1.79560000e-01	N
atom  1.52015000e+00 2.21670000e+01 1.40678000e+01	Si
atom  1.57872000e+00 2.15115000e+01 1.10750000e+01	Si
atom  1.46023000e+00 2.26366000e+01 1.24148000e+01	N
atom  1.76261000e+00 2.42453000e+01 1.21140000e+01	Si
atom  1.61714000e+00 2.52421000e+01 1.35428000e+01	N
atom  1.97686000e+00 2.05068000e+01 1.40403000e+01	N
atom  5.50872000e-01 2.51600000e+01 1.11373000e+01	N
atom  3.05889000e-01 2.73443000e+01 1.26338000e+01	N
atom  7.00959000e-02 2.90250000e+01 1.25076000e+01	Si
atom  1.65607000e+00 2.97395000e+01 1.23543000e+01	N
atom  1.79583000e+00 2.69765000e+01 1.36154000e+01	Si
atom  -3.39815000e-01 2.93270000e+01 1.97992000e+01	Si
atom  1.27504000e+00 2.72906000e+01 1.52284000e+01	N
atom  6.92628000e-03 2.23254000e+01 1.49685000e+01	N
atom  5.82154000e-01 2.47406000e+01 1.76349000e+01	Si
atom  1.00323000e+00 2.32719000e+01 1.84042000e+01	N
atom  1.36614000e+00 2.15828000e+01 1.82038000e+01	Si
atom  3.48222000e-01 2.48219000e+01 1.58651000e+01	N
atom  8.10588000e-02 2.06598000e+01 1.88437000e+01	N
atom  -1.58167000e-01 2.65010000e+01 1.56075000e+01	Si
atom  1.68160000e+00 2.61510000e+01 1.78892000e+01	N
atom  3.21878000e-01 2.77403000e+01 1.95769000e+01	N
atom  1.59429000e+00 2.65496000e+01 1.96007000e+01	Si
atom  1.43348000e+00 2.24805000e+01 2.11167000e+01	N
atom  -2.88955000e-02 2.06268000e+01 2.24598000e+01	N
atom  -1.04912000e-01 2.22280000e+01 2.17349000e+01	Si
atom  4.33573000e-01 2.05504000e+01 2.41420000e+01	Si
atom  9.80428000e-01 2.51161000e+01 2.04647000e+01	N
atom  1.64575000e+00 2.36894000e+01 1.99125000e+01	Si
atom  -4.68553000e-01 2.37135000e+01 2.27313000e+01	N
atom  2.46102000e-01 2.52751000e+01 2.20642000e+01	Si
atom  1.44654000e+00 2.63299000e+01 2.27626000e+01	N
atom  9.01496000e-01 2.73210000e+01 2.40199000e+01	Si
atom  1.75745000e-01 2.99411000e+01 2.25834000e+01	Si
atom  -1.05859000e-01 2.86924000e+01 2.37206000e+01	N
atom  1.66037000e+00 3.00523000e+01 2.16970000e+01	N
atom  6.23144000e-01 2.18802000e+01 2.51555000e+01	N
atom  1.16042000e+00 2.39518000e+01 2.61839000e+01	N
atom  9.11974000e-01 2.09672000e+01 2.81082000e+01	Si
atom  -3.17391000e-01 2.29006000e+01 2.62521000e+01	Si
atom  -1.39731000e-01 2.60783000e+01 2.47825000e+01	N
atom  5.49323000e-01 2.55204000e+01 2.63713000e+01	Si
atom  1.51913000e+00 2.65592000e+01 2.74147000e+01	N
atom  9.95649000e-01 2.92896000e+01 2.72572000e+01	N
atom  1.47172000e+00 2.26937000e+01 3.30355000e+01	Si
atom  3.08916000e-01 2.43162000e+01 3.09534000e+01	Si
atom  1.67539000e+00 2.33511000e+01 3.11308000e+01	N
atom  -2.91360000e-01 2.27995000e+01 3.29060000e+01	N
atom  8.47443000e-01 2.09134000e+01 2.98463000e+01	N
atom  5.08629000e-01 2.98047000e+01 3.17117000e+01	Si
atom  5.30238000e-01 2.67590000e+01 3.14920000e+01	Si
atom  4.19415000e-01 2.94606000e+01 3.34109000e+01	N
atom  1.66887000e+00 2.70486000e+01 3.27783000e+01	N
atom  1.13646000e+00 2.80257000e+01 3.41139000e+01	Si
atom  7.06721000e-01 2.58800000e+01 2.99458000e+01	N
atom  -3.74108000e-01 2.53518000e+01 3.20684000e+01	N
atom  -3.61271000e-01 2.82499000e+01 3.12486000e+01	N
atom  1.57680000e+00 2.21251000e+01 3.47615000e+01	N
atom  1.47348000e+00 2.47187000e+01 3.67133000e+01	N
atom  3.44966000e-01 2.13820000e+01 3.57247000e+01	Si
atom  8.97604000e-01 2.40179000e+01 3.52629000e+01	Si
atom  7.88489000e-01 2.04905000e+01 3.72318000e+01	N
atom  1.47021000e+00 2.49725000e+01 3.92074000e+01	N
atom  2.88956000e-01 2.49322000e+01 3.79408000e+01	Si
atom  1.60741000e+00 2.71556000e+01 3.77641000e+01	N
atom  1.39843000e+00 2.79775000e+01 3.94212000e+01	Si
atom  1.91942000e-01 2.77906000e+01 3.70975000e+01	Si
atom  7.02886000e-02 2.75897000e+01 3.53023000e+01	N
atom  5.47636000e-02 3.02367000e+01 3.92524000e+01	Si
atom  1.36479000e+00 2.92533000e+01 3.66967000e+01	N
atom  -2.35723000e-01 2.86788000e+01 3.86265000e+01	N
atom  -3.15599000e-01 2.29244000e+01 3.61060000e+01	N
atom  6.66786000e-01 3.41879000e+01 2.89427000e+00	N
atom  1.70556000e-01 3.31042000e+01 4.13822000e+00	Si
atom  1.71458000e+00 3.25280000e+01 3.96927000e-01	N
atom  1.70987000e+00 3.49224000e+01 3.79711000e-01	N
atom  -1.23809000e-01 3.15525000e+01 3.34795000e+00	N
atom  1.83244000e+00 3.36942000e+01 1.67866000e+00	Si
atom  6.29718000e-01 3.82423000e+01 1.93972000e+00	Si
atom  1.38047000e+00 3.95176000e+01 2.83277000e+00	N
atom  4.05838000e-01 4.01674000e+01 4.18459000e+00	Si
atom  -3.71344000e-01 3.72532000e+01 3.03263000e+00	N
atom  1.43186000e+00 3.62653000e+01 9.24477000e+00	N
atom  1.66853000e+00 3.46062000e+01 9.66436000e+00	Si
atom  1.41150000e+00 3.32302000e+01 5.38960000e+00	N
atom  1.50932000e-01 3.16051000e+01 8.01025000e+00	N
atom  9.44641000e-01 3.42838000e+01 6.70443000e+00	Si
atom  1.82388000e+00 3.18809000e+01 8.34441000e+00	Si
atom  1.71874000e+00 3.36849000e+01 8.20719000e+00	N
atom  1.13061000e+00 3.69881000e+01 7.71367000e+00	Si
atom  1.56009000e+00 3.58561000e+01 6.39900000e+00	N
atom  4.86475000e-01 3.91581000e+01 5.53530000e+00	N
atom  1.89230000e+00 3.85473000e+01 7.79039000e+00	N
atom  2.00011000e+00 3.73949000e+01 1.33505000e+00	N
atom  -3.92829000e-01 3.82435000e+01 9.99731000e+00	N
atom  8.50160000e-01 3.34920000e+01 1.08132000e+01	N
atom  1.71605000e+00 3.15489000e+01 1.46257000e+01	N
atom  9.87569000e-01 3.73720000e+01 1.04429000e+01	Si
atom  7.40861000e-01 3.65613000e+01 1.19619000e+01	N
atom  1.83819000e-01 3.99328000e+01 1.06268000e+01	Si
atom  7.74235000e-02 3.98261000e+01 1.23340000e+01	N
atom  2.52197000e-02 3.11470000e+01 1.48467000e+01	Si
atom  2.26501000e-01 3.25488000e+01 1.78285000e+01	N
atom  1.78552000e-01 3.35723000e+01 1.63625000e+01	Si
atom  9.70955000e-01 3.10024000e+01 1.76057000e+01	Si
atom  -7.69442000e-02 3.33940000e+01 1.93388000e+01	Si
atom  8.24340000e-01 3.03669000e+01 1.91365000e+01	N
atom  1.47342000e-02 3.02658000e+01 1.63561000e+01	N
atom  1.17944000e+00 3.46632000e+01 1.96601000e+01	N
atom  1.20679000e+00 3.67494000e+01 1.57898000e+01	N
atom  1.14916000e+00 3.91692000e+01 1.90154000e+01	N
atom  2.96074000e-02 3.96106000e+01 1.53007000e+01	N
atom  1.35053000e+00 3.84427000e+01 1.54031000e+01	Si
atom  1.85941000e+00 4.01582000e+01 1.78054000e+01	Si
atom  -6.23203000e-01 3.28508000e+01 1.50143000e+01	N
atom  -5.08716000e-01 3.62999000e+01 1.57662000e+01	Si
atom  1.39854000e+00 3.13283000e+01 2.04691000e+01	Si
atom  1.05566000e-01 3.24581000e+01 2.08207000e+01	N
atom  1.41688000e+00 3.42138000e+01 2.46329000e+01	N
atom  -3.80290000e-01 3.13685000e+01 2.34386000e+01	N
atom  4.44008000e-01 3.60943000e+01 2.02473000e+01	Si
atom  1.62465000e+00 3.72822000e+01 2.08647000e+01	N
atom  -2.74553000e-01 3.46628000e+01 2.76753000e+01	N
atom  3.88369000e-01 3.19626000e+01 2.83282000e+01	N
atom  1.20770000e+00 3.14303000e+01 2.57158000e+01	N
atom  1.39472000e+00 3.09216000e+01 2.73792000e+01	Si
atom  7.87594000e-01 3.36495000e+01 2.85202000e+01	Si
atom  -4.05479000e-01 3.15121000e+01 2.51876000e+01	Si
atom  -9.36907000e-02 3.60979000e+01 2.67109000e+01	Si
atom  -4.22612000e-01 3.77368000e+01 2.71661000e+01	N
atom  -3.28329000e-01 3.89541000e+01 2.58927000e+01	Si
atom  5.60917000e-01 3.83884000e+01 2.84691000e+01	Si
atom  1.11558000e+00 3.90141000e+01 2.49178000e+01	N
atom  1.58994000e+00 3.62918000e+01 2.62689000e+01	N
atom  -3.49661000e-01 3.41176000e+01 2.46459000e+01	Si
atom  -3.95404000e-01 3.96302000e+01 2.91356000e+01	N
atom  5.60348000e-01 3.40685000e+01 3.15542000e+01	Si
atom  7.91557000e-01 3.26847000e+01 3.42017000e+01	Si
atom  1.54196000e+00 3.31341000e+01 3.26877000e+01	N
atom  1.42318000e+00 3.40318000e+01 3.00303000e+01	N
atom  -4.91057000e-01 3.10813000e+01 3.09326000e+01	N
atom  1.12052000e-01 3.69332000e+01 3.10881000e+01	Si
atom  8.63693000e-01 3.57663000e+01 3.21269000e+01	N
atom  1.10362000e+00 3.99982000e+01 3.40566000e+01	N
atom  -2.34925000e-01 3.99267000e+01 3.08819000e+01	Si
atom  7.32039000e-01 3.84296000e+01 3.47872000e+01	Si
atom  -3.48908000e-01 3.60424000e+01 3.60318000e+01	N
atom  1.32728000e+00 3.37120000e+01 3.55328000e+01	N
atom  1.56235000e+00 3.37619000e+01 3.90127000e+01	Si
atom  -8.19655000e-02 3.13280000e+01 3.78916000e+01	N
atom  8.23135000e-01 3.12465000e+01 3.51847000e+01	N
atom  1.16830000e+00 3.09011000e+01 3.67582000e+01	Si
atom  -2.09867000e-02 3.43775000e+01 3.63695000e+01	Si
atom  1.10940000e-01 3.41319000e+01 3.81481000e+01	N
atom  4.28263000e-01 3.67241000e+01 3.86717000e+01	N
atom  -1.52889000e-01 3.73820000e+01 3.71576000e+01	Si
atom  1.06630000e+00 3.85329000e+01 3.65406000e+01	N
atom  1.82987000e+00 3.65309000e+01 3.97238000e+01	Si
atom  1.15949000e+00 3.73089000e+01 2.97495000e+01	N
atom  3.30835000e+00 1.58555000e+00 3.02475000e+00	N
atom  4.05430000e+00 3.76515000e+00 5.85032000e-01	N
atom  3.87899000e+00 7.77373000e+00 2.82578000e+00	Si
atom  3.27716000e+00 8.82244000e+00 4.15732000e+00	N
atom  3.63698000e+00 6.00740000e+00 2.32397000e+00	N
atom  3.44835000e+00 8.75988000e+00 1.39137000e+00	N
atom  2.10551000e+00 9.94283000e+00 1.42509000e+00	Si
atom  2.00752000e+00 5.42828000e+00 2.23838000e+00	Si
atom  3.51194000e+00 2.95384000e+00 5.71360000e+00	N
atom  2.73184000e+00 4.76461000e+00 9.17337000e+00	Si
atom  2.49051000e+00 1.08443000e+00 7.06512000e+00	N
atom  3.95309000e+00 4.40883000e-01 9.40826000e+00	N
atom  3.85411000e+00 5.20180000e+00 7.91078000e+00	N
atom  3.23202000e+00 6.44358000e+00 6.85371000e+00	Si
atom  3.06579000e+00 5.64197000e+00 5.36666000e+00	N
atom  4.09527000e+00 7.88513000e+00 6.49103000e+00	N
atom  2.57299000e+00 1.03960000e+01 4.23663000e+00	Si
atom  3.09547000e+00 3.07768000e+00 9.71550000e+00	N
atom  3.59643000e+00 3.09883000e+00 1.27653000e+01	N
atom  3.30490000e+00 9.63679000e+00 1.53517000e+01	Si
atom  2.06997000e+00 1.02761000e+01 1.24607000e+01	N
atom  1.97444000e+00 1.26895000e+00 1.38872000e+01	N
atom  2.52694000e+00 8.68356000e+00 1.00189000e+01	N
atom  2.19135000e+00 8.66469000e+00 1.31540000e+01	Si
atom  2.78687000e+00 7.35348000e+00 1.11832000e+01	Si
atom  3.72363000e+00 8.15238000e+00 1.23982000e+01	N
atom  2.93858000e+00 5.86705000e+00 1.04635000e+01	N
atom  2.73597000e+00 1.01795000e+01 1.08724000e+01	Si
atom  2.04576000e+00 4.04102000e+00 1.71974000e+01	N
atom  2.54131000e+00 4.43568000e+00 1.56421000e+01	Si
atom  2.70539000e+00 1.56360000e+00 1.86082000e+01	N
atom  2.53378000e+00 4.88957000e+00 1.96433000e+01	N
atom  4.18152000e+00 3.81869000e+00 1.55522000e+01	N
atom  1.95319000e+00 8.60931000e+00 1.48514000e+01	N
atom  2.58728000e+00 5.68813000e+00 1.79359000e+01	Si
atom  4.10964000e+00 6.65739000e+00 1.81535000e+01	N
atom  2.85028000e+00 6.13543000e+00 1.59533000e+01	N
atom  3.40464000e+00 3.35069000e+00 2.37824000e+01	N
atom  3.63778000e+00 2.70803000e+00 2.10784000e+01	N
atom  2.46622000e+00 3.02549000e+00 2.23556000e+01	Si
atom  4.00703000e+00 1.84799000e+00 2.44646000e+01	Si
atom  3.67093000e+00 4.92873000e+00 2.44846000e+01	Si
atom  4.06209000e+00 3.99219000e+00 2.00093000e+01	Si
atom  3.59282000e+00 9.95561000e-01 2.16364000e+01	Si
atom  2.11375000e+00 1.23957000e+00 2.25500000e+01	N
atom  2.48397000e+00 8.51087000e+00 2.14059000e+01	Si
atom  3.77878000e+00 6.22296000e+00 2.18280000e+01	Si
atom  2.29517000e+00 6.89412000e+00 2.24427000e+01	N
atom  2.93298000e+00 9.76961000e+00 2.25729000e+01	N
atom  3.94228000e+00 7.65512000e+00 2.08595000e+01	N
atom  2.09240000e+00 9.61394000e+00 1.99623000e+01	N
atom  2.01044000e+00 9.75780000e+00 2.40924000e+01	Si
atom  3.79412000e+00 4.24347000e+00 2.94288000e+01	Si
atom  2.67057000e+00 1.07812000e+00 2.52489000e+01	N
atom  3.75005000e+00 1.52369000e+00 2.85486000e+01	Si
atom  2.18677000e+00 1.80138000e+00 2.78874000e+01	N
atom  2.70922000e+00 5.45773000e+00 2.67526000e+01	Si
atom  2.18291000e+00 5.71254000e+00 2.50412000e+01	N
atom  3.45415000e+00 9.91358000e+00 2.93120000e+01	Si
atom  3.65889000e+00 8.25857000e+00 2.90332000e+01	N
atom  2.25680000e+00 7.18317000e+00 2.91270000e+01	Si
atom  3.68742000e+00 5.80327000e+00 2.86705000e+01	N
atom  1.98560000e+00 7.02630000e+00 2.73878000e+01	N
atom  3.12450000e+00 1.97005000e+00 3.28744000e+01	N
atom  2.26823000e+00 3.12774000e+00 3.38351000e+01	Si
atom  2.08659000e+00 4.37220000e+00 3.26622000e+01	N
atom  3.99860000e+00 1.36560000e+00 3.02323000e+01	N
atom  3.23710000e+00 5.27525000e+00 3.35020000e+01	Si
atom  2.26431000e+00 3.61300000e+00 2.98661000e+01	N
atom  4.16176000e+00 2.56612000e+00 3.15192000e+01	Si
atom  2.23082000e+00 4.55935000e-01 3.27402000e+01	Si
atom  3.60215000e+00 3.95079000e+00 3.46106000e+01	N
atom  3.63427000e+00 7.80954000e+00 3.35765000e+01	Si
atom  2.46752000e+00 8.92042000e+00 3.28312000e+01	N
atom  2.34494000e+00 6.53265000e+00 3.42418000e+01	N
atom  3.69796000e+00 1.00969000e+01 3.24723000e+01	Si
atom  4.15298000e+00 1.01724000e+01 3.08405000e+01	N
atom  2.63301000e+00 2.04066000e+00 3.79298000e+01	Si
atom  3.99869000e+00 2.97462000e+00 3.75244000e+01	N
atom  2.67939000e+00 4.44991000e+00 3.96711000e+01	Si
atom  4.34418000e+00 5.54074000e+00 3.65602000e+01	N
atom  2.41146000e+00 7.38564000e+00 3.86281000e+01	Si
atom  4.06720000e+00 1.00210000e+01 3.61808000e+01	N
atom  3.04112000e+00 1.00193000e+01 3.75489000e+01	Si
atom  3.03791000e+00 6.61494000e+00 3.58921000e+01	Si
atom  3.54068000e+00 8.69793000e+00 3.85651000e+01	N
atom  3.33940000e+00 5.92932000e+00 3.89436000e+01	N
atom  2.58940000e+00 1.10659000e+01 2.59833000e+00	N
atom  2.84447000e+00 1.26945000e+01 1.98540000e+00	Si
atom  3.91563000e+00 1.25758000e+01 6.34830000e-01	N
atom  3.81888000e+00 1.38084000e+01 2.94186000e+00	N
atom  2.60708000e+00 1.66977000e+01 5.11417000e+00	N
atom  2.98185000e+00 1.55018000e+01 7.89248000e-01	N
atom  3.84372000e+00 1.55684000e+01 4.59062000e+00	Si
atom  3.71754000e+00 1.87706000e+01 3.60584000e+00	N
atom  3.45196000e+00 1.81418000e+01 9.09900000e-01	N
atom  3.11370000e+00 1.97758000e+01 5.99149000e-01	Si
atom  2.33042000e+00 1.82859000e+01 4.63897000e+00	Si
atom  3.53196000e+00 1.15308000e+01 5.09250000e+00	N
atom  3.54160000e+00 1.41044000e+01 5.47168000e+00	N
atom  2.78553000e+00 1.09343000e+01 8.11948000e+00	Si
atom  2.18724000e+00 1.44123000e+01 9.34532000e+00	N
atom  2.12110000e+00 1.31665000e+01 5.89304000e+00	Si
atom  2.10752000e+00 1.22509000e+01 7.37595000e+00	N
atom  2.36642000e+00 1.59982000e+01 8.80655000e+00	Si
atom  2.01416000e+00 1.92053000e+01 6.00338000e+00	N
atom  3.57054000e+00 1.89754000e+01 8.19580000e+00	N
atom  3.93267000e+00 1.60613000e+01 8.20516000e+00	N
atom  2.46995000e+00 1.15872000e+01 9.82083000e+00	N
atom  3.20529000e+00 1.33531000e+01 1.18863000e+01	N
atom  3.13366000e+00 1.31189000e+01 1.01699000e+01	Si
atom  4.26238000e+00 1.47652000e+01 1.44250000e+01	N
atom  4.22858000e+00 1.99702000e+01 1.24799000e+01	N
atom  2.56074000e+00 1.95406000e+01 1.27244000e+01	Si
atom  2.60571000e+00 1.66210000e+01 1.18534000e+01	Si
atom  2.45474000e+00 1.78729000e+01 1.30790000e+01	N
atom  2.99477000e+00 1.73596000e+01 1.46813000e+01	Si
atom  2.16197000e+00 1.71500000e+01 1.01923000e+01	N
atom  2.72805000e+00 1.43776000e+01 1.52146000e+01	Si
atom  2.82434000e+00 1.44346000e+01 1.93628000e+01	N
atom  2.69180000e+00 1.10278000e+01 1.61161000e+01	N
atom  2.42276000e+00 1.18686000e+01 1.85745000e+01	N
atom  2.89955000e+00 1.38391000e+01 1.67995000e+01	N
atom  3.80429000e+00 1.47855000e+01 1.79252000e+01	Si
atom  3.33072000e+00 1.06139000e+01 1.92442000e+01	Si
atom  2.02714000e+00 1.22949000e+01 1.69668000e+01	Si
atom  2.55957000e+00 1.94359000e+01 1.94226000e+01	Si
atom  4.13666000e+00 1.88356000e+01 1.95634000e+01	N
atom  3.03584000e+00 1.65011000e+01 1.78031000e+01	N
atom  2.25207000e+00 1.83021000e+01 1.59024000e+01	N
atom  4.16601000e+00 1.58450000e+01 1.20494000e+01	N
atom  3.39597000e+00 1.14802000e+01 2.19034000e+01	Si
atom  4.11326000e+00 1.22468000e+01 2.33511000e+01	N
atom  2.01623000e+00 1.23428000e+01 2.12846000e+01	N
atom  3.76524000e+00 1.52753000e+01 2.05536000e+01	Si
atom  2.89648000e+00 1.62220000e+01 2.16453000e+01	N
atom  3.39824000e+00 1.75680000e+01 2.40375000e+01	N
atom  2.12915000e+00 1.99705000e+01 2.41532000e+01	N
atom  4.18495000e+00 1.66126000e+01 2.28323000e+01	Si
atom  3.38641000e+00 1.19914000e+01 2.49537000e+01	Si
atom  3.50514000e+00 1.48782000e+01 2.59872000e+01	N
atom  3.74977000e+00 1.38458000e+01 2.74108000e+01	Si
atom  2.43202000e+00 1.37658000e+01 2.85272000e+01	N
atom  2.06997000e+00 1.07679000e+01 2.88321000e+01	N
atom  3.35799000e+00 1.02811000e+01 2.49382000e+01	N
atom  3.40248000e+00 1.85349000e+01 2.68138000e+01	N
atom  1.94873000e+00 1.44785000e+01 2.53564000e+01	Si
atom  2.02207000e+00 1.67821000e+01 2.83487000e+01	N
atom  3.62793000e+00 1.87854000e+01 2.96811000e+01	N
atom  1.81130000e+00 1.81348000e+01 2.72383000e+01	Si
atom  3.47405000e+00 1.40608000e+01 3.19188000e+01	N
atom  3.52159000e+00 1.16761000e+01 3.30146000e+01	N
atom  2.77179000e+00 1.21931000e+01 3.44524000e+01	Si
atom  2.10640000e+00 1.76105000e+01 3.25806000e+01	Si
atom  3.11921000e+00 1.64133000e+01 3.33764000e+01	N
atom  3.40741000e+00 1.87149000e+01 3.23455000e+01	N
atom  4.00139000e+00 1.57258000e+01 3.20267000e+01	Si
atom  4.15332000e+00 1.68267000e+01 3.47447000e+01	Si
atom  4.21147000e+00 1.61553000e+01 3.03588000e+01	N
atom  3.74851000e+00 1.44489000e+01 3.63823000e+01	Si
atom  3.79655000e+00 1.27929000e+01 3.57596000e+01	N
atom  3.67541000e+00 1.15855000e+01 3.81113000e+01	N
atom  3.31902000e+00 1.30620000e+01 3.89353000e+01	Si
atom  4.18806000e+00 1.42935000e+01 3.80522000e+01	N
atom  2.14575000e+00 1.51390000e+01 3.64023000e+01	N
atom  1.87984000e+00 1.68490000e+01 3.67222000e+01	Si
atom  3.16415000e+00 1.68910000e+01 3.95386000e+01	Si
atom  3.22991000e+00 2.00802000e+01 3.87970000e+01	N
atom  3.13760000e+00 1.77415000e+01 3.58149000e+01	N
atom  2.89120000e+00 1.72052000e+01 2.97968000e+01	Si
atom  2.92518000e+00 2.46147000e+01 4.06322000e+00	N
atom  3.08710000e+00 2.39036000e+01 2.46988000e+00	Si
atom  4.11732000e+00 2.33336000e+01 1.08608000e+00	N
atom  2.84042000e+00 2.39201000e+01 -1.02827000e-01	Si
atom  2.66981000e+00 2.52674000e+01 1.43126000e+00	N
atom  2.18373000e+00 2.94203000e+01 3.12772000e+00	Si
atom  2.99745000e+00 2.79299000e+01 2.79687000e+00	N
atom  3.27493000e+00 2.69297000e+01 1.33535000e+00	Si
atom  3.21107000e+00 2.75688000e+01 -2.21839000e-01	N
atom  2.15244000e+00 2.18671000e+01 4.94227000e+00	N
atom  2.38552000e+00 2.13291000e+01 7.67365000e+00	N
atom  3.31621000e+00 2.39430000e+01 8.22611000e+00	N
atom  3.37025000e+00 2.22159000e+01 8.74901000e+00	Si
atom  2.86766000e+00 2.08257000e+01 6.05753000e+00	Si
atom  3.61131000e+00 2.62010000e+01 6.41748000e+00	N
atom  1.94680000e+00 2.80206000e+01 8.43467000e+00	Si
atom  2.49722000e+00 2.53196000e+01 7.45581000e+00	Si
atom  3.67241000e+00 2.80226000e+01 8.48959000e+00	N
atom  2.54752000e+00 2.98776000e+01 6.32224000e+00	Si
atom  4.14401000e+00 2.53142000e+01 5.06761000e+00	Si
atom  4.04641000e+00 2.90377000e+01 6.08522000e+00	N
atom  3.37397000e+00 2.44495000e+01 1.16802000e+01	N
atom  3.11857000e+00 2.20130000e+01 1.04045000e+01	N
atom  4.15906000e+00 2.29719000e+01 1.14294000e+01	Si
atom  3.90939000e+00 2.97887000e+01 1.39490000e+01	N
atom  3.34679000e+00 2.71921000e+01 1.28968000e+01	N
atom  3.88604000e+00 2.91467000e+01 1.09685000e+01	N
atom  2.29083000e+00 2.97770000e+01 1.07720000e+01	Si
atom  4.28364000e+00 2.87324000e+01 1.26292000e+01	Si
atom  2.72140000e+00 2.30756000e+01 1.50346000e+01	N
atom  3.48781000e+00 2.19065000e+01 1.60220000e+01	Si
atom  2.85615000e+00 2.12850000e+01 1.92300000e+01	N
atom  4.10477000e+00 2.25357000e+01 1.88980000e+01	Si
atom  3.34089000e+00 2.39469000e+01 1.96408000e+01	N
atom  2.12847000e+00 2.10701000e+01 1.67227000e+01	N
atom  2.05895000e+00 2.47166000e+01 1.51266000e+01	Si