lattice_vector  3.99128353e+01 0.00000000e+00 0.00000000e+00
lattice_vector  2.44395630e-15 3.99128353e+01 0.00000000e+00
lattice_vector  2.44395630e-15 2.44395630e-15 3.99128353e+01
atom  8.46782000e-01 1.62265000e+00 1.31621000e+00	Si
atom  1.26211000e+00 1.95220000e+00 4.49660000e+00	N
atom  2.10696000e+00 5.07090000e-01 3.96871000e+00	Si
atom  1.58348000e+00 4.50623000e-01 2.41101000e+00	N
atom  5.66713000e+00 1.14479000e+00 8.67100000e+00	N
atom  -4.41823000e-01 1.92952000e+00 4.93389000e+00	Si
atom  7.79611000e+00 2.39287000e+00 3.55421000e+00	Si
atom  6.49581000e+00 6.04768000e-01 2.98214000e-01	N
atom  6.93348000e+00 7.38896000e-01 1.91792000e+00	Si
atom  6.28577000e+00 1.38954000e+00 3.38077000e+00	N
atom  8.10369000e+00 1.95916000e+00 1.82574000e+00	N
atom  8.76977000e+00 1.47049000e+00 4.60453000e+00	N
atom  5.29659000e+00 9.75883000e-01 4.72766000e+00	Si
atom  3.18606000e+00 1.45115000e+00 8.74301000e+00	N
atom  2.11372000e-01 2.17375000e+00 9.27696000e+00	N
atom  1.52105000e+00 9.50147000e-01 9.18215000e+00	Si
atom  9.18956000e+00 1.07909000e+00 8.54360000e+00	Si
atom  4.44939000e+00 2.48871000e+00 9.36916000e+00	Si
atom  8.00720000e+00 1.36293000e+00 7.26900000e+00	N
atom  8.17639000e+00 3.95087000e-01 5.85237000e+00	Si
atom  6.31757000e+00 1.36952000e+00 7.07682000e+00	Si
atom  5.03283000e+00 2.00965000e+00 6.02352000e+00	N
atom  3.42497000e+00 1.56039000e+00 1.35253000e+01	N
atom  1.10652000e+00 1.24762000e+00 1.22360000e+01	Si
atom  9.69599000e-01 4.98725000e-01 1.38606000e+01	N
atom  7.58554000e+00 1.81734000e+00 1.73322000e+01	Si
atom  4.53586000e+00 2.62147000e+00 1.11029000e+01	N
atom  6.53665000e+00 7.76484000e-01 1.13966000e+01	N
atom  6.18111000e+00 2.43055000e+00 1.16452000e+01	Si
atom  5.89080000e+00 1.83770000e+00 1.46803000e+01	Si
atom  4.63768000e+00 2.45934000e+00 1.57491000e+01	N
atom  1.08326000e+00 2.06532000e+00 1.82314000e+01	N
atom  -3.63041000e-01 4.17893000e-01 1.64575000e+01	N
atom  1.05570000e+00 5.28328000e-01 1.74817000e+01	Si
atom  3.09082000e+00 2.66407000e+00 1.48438000e+01	Si
atom  7.31076000e+00 2.71165000e-01 1.80758000e+01	N
atom  7.36849000e+00 1.51324000e+00 1.56541000e+01	N
atom  3.41504000e+00 2.83625000e+00 1.23928000e+01	Si
atom  4.57773000e+00 1.17754000e-01 1.80621000e+01	N
atom  5.90155000e+00 3.31590000e-01 1.91191000e+01	Si
atom  2.88648000e+00 1.84830000e+00 2.14285000e+01	Si
atom  1.79041000e+00 2.16216000e+00 2.27437000e+01	N
atom  1.09768000e-01 2.43911000e+00 2.24451000e+01	Si
atom  3.87430000e+00 1.58108000e+00 2.45593000e+01	N
atom  4.45775000e+00 1.85150000e+00 2.20725000e+01	N
atom  6.26969000e+00 1.18495000e+00 2.64225000e+01	N
atom  6.24677000e+00 1.58929000e+00 2.02273000e+01	N
atom  5.52099000e+00 5.87630000e-01 2.15669000e+01	Si
atom  7.74490000e+00 9.40113000e-01 2.89646000e+01	N
atom  3.56956000e+00 2.56066000e+00 2.73060000e+01	N
atom  1.29577000e+00 8.10636000e-01 2.77055000e+01	N
atom  1.83519000e+00 2.47278000e+00 2.72627000e+01	Si
atom  8.03824000e+00 4.58848000e-01 2.46871000e+01	N
atom  5.01173000e+00 9.95152000e-01 2.89014000e+01	N
atom  8.89420000e+00 2.05253000e+00 2.83074000e+01	Si
atom  4.69988000e+00 1.23042000e+00 2.71806000e+01	Si
atom  7.23396000e+00 2.08644000e+00 2.51719000e+01	Si
atom  4.80124000e+00 2.74345000e+00 2.35207000e+01	Si
atom  6.35276000e+00 1.53031000e+00 2.99087000e+01	Si
atom  3.14880000e+00 1.07831000e+00 3.33062000e+01	N
atom  4.25003000e-01 9.27673000e-01 3.27760000e+01	N
atom  2.15301000e+00 1.03137000e+00 3.05134000e+01	N
atom  -2.50338000e-02 1.74784000e+00 3.41994000e+01	Si
atom  2.03214000e+00 5.27902000e-01 3.21414000e+01	Si
atom  9.21629000e+00 7.01076000e-01 3.18105000e+01	N
atom  6.42070000e+00 5.51554000e-01 3.13558000e+01	N
atom  6.91457000e+00 2.23890000e+00 3.49880000e+01	N
atom  2.70470000e-01 1.08192000e+00 3.72480000e+01	Si
atom  -1.61944000e-01 6.50020000e-01 3.55821000e+01	N
atom  4.59121000e+00 8.97189000e-01 3.56923000e+01	N
atom  8.96844000e+00 2.28567000e+00 3.63735000e+01	N
atom  5.28772000e+00 2.49176000e+00 3.55429000e+01	Si
atom  8.47233000e+00 2.29668000e+00 3.90246000e+01	N
atom  7.52797000e+00 8.24506000e-01 3.88014000e+01	Si
atom  7.77239000e+00 1.07344000e+00 3.60653000e+01	Si
atom  6.70833000e+00 8.84904000e-01 3.73809000e+01	N
atom  1.79963000e+00 1.05303000e+00 3.98812000e+01	N
atom  1.91368000e+00 3.53734000e+00 4.32396000e+00	Si
atom  3.67653000e+00 3.62718000e+00 4.06416000e+00	N
atom  1.29365000e+00 4.37044000e+00 2.91928000e+00	N
atom  7.12273000e-01 3.20031000e+00 5.22968000e-01	N
atom  6.24038000e-01 4.77760000e+00 1.16023000e+00	Si
atom  9.16194000e+00 4.40718000e+00 1.06563000e+00	N
atom  8.07561000e+00 3.17560000e+00 5.43804000e-01	Si
atom  7.90676000e+00 4.04615000e+00 3.62550000e+00	N
atom  6.48795000e+00 3.89092000e+00 3.61166000e-01	N
atom  6.66927000e+00 4.41568000e+00 9.41602000e+00	Si
atom  3.58311000e+00 4.48814000e+00 6.66516000e+00	N
atom  1.10464000e+00 4.65473000e+00 5.46546000e+00	N
atom  5.18315000e+00 3.95702000e+00 8.78180000e+00	N
atom  6.10949000e+00 4.37718000e+00 5.49199000e+00	N
atom  4.55475000e+00 3.58302000e+00 5.59712000e+00	Si
atom  7.75440000e+00 4.87593000e+00 8.16545000e+00	N
atom  3.37497000e+00 3.95250000e+00 1.37300000e+01	N
atom  1.11073000e+00 4.42290000e+00 1.22563000e+01	Si
atom  3.91314000e-01 4.84282000e+00 1.37982000e+01	N
atom  1.72511000e+00 2.82624000e+00 1.20476000e+01	N
atom  -2.31332000e-01 4.29928000e+00 1.11115000e+01	N
atom  9.52896000e+00 5.01617000e+00 1.03993000e+01	N
atom  8.96123000e+00 3.33856000e+00 1.07020000e+01	Si
atom  6.70548000e+00 4.52482000e+00 1.36251000e+01	Si
atom  7.25985000e+00 3.26121000e+00 1.05763000e+01	N
atom  6.34011000e+00 2.86368000e+00 1.33231000e+01	N
atom  8.18174000e+00 4.94715000e+00 1.28314000e+01	N
atom  8.49726000e-01 3.06648000e+00 1.96660000e+01	Si
atom  2.96671000e-01 3.85630000e+00 1.51894000e+01	Si
atom  7.69910000e-01 4.54523000e+00 1.84692000e+01	N
atom  1.91467000e+00 3.49319000e+00 1.75326000e+01	Si
atom  1.81473000e+00 3.23876000e+00 1.58019000e+01	N
atom  3.50104000e+00 3.83434000e+00 1.80271000e+01	N
atom  3.53405000e+00 4.29476000e+00 1.96653000e+01	Si
atom  8.91722000e+00 2.98115000e+00 1.74027000e+01	N
atom  4.92066000e+00 3.62405000e+00 1.69947000e+01	Si
atom  6.29536000e+00 3.23035000e+00 1.96805000e+01	Si
atom  6.20184000e+00 2.95745000e+00 1.79728000e+01	N
atom  8.73679000e+00 4.14896000e+00 1.87529000e+01	Si
atom  7.24656000e+00 4.63424000e+00 1.52787000e+01	N
atom  8.61364000e+00 4.14138000e+00 1.61685000e+01	Si
atom  3.52805000e+00 4.03650000e+00 2.37042000e+01	N
atom  2.43266000e+00 3.05583000e+00 2.03006000e+01	N
atom  -3.13196000e-01 3.01113000e+00 2.08556000e+01	N
atom  2.53464000e+00 2.72229000e+00 2.42008000e+01	Si
atom  8.40779000e+00 4.55035000e+00 2.17083000e+01	Si
atom  6.20609000e+00 3.23396000e+00 2.43481000e+01	N
atom  5.14564000e+00 4.34067000e+00 2.02257000e+01	N
atom  7.70753000e+00 4.03456000e+00 2.01597000e+01	N
atom  6.78010000e+00 4.94776000e+00 2.42410000e+01	Si
atom  7.00232000e+00 5.06442000e+00 2.25377000e+01	N
atom  -4.63503000e-01 3.70098000e+00 2.35003000e+01	N
atom  9.48575000e+00 3.44047000e+00 2.23863000e+01	N
atom  8.78510000e+00 2.90740000e+00 2.49453000e+01	N
atom  3.98345000e+00 4.09777000e+00 2.79750000e+01	Si
atom  1.04729000e+00 3.85548000e+00 2.81491000e+01	N
atom  3.36066000e+00 4.30965000e+00 2.95519000e+01	N
atom  1.42734000e+00 2.90340000e+00 2.55130000e+01	N
atom  -2.54463000e-01 3.23470000e+00 2.51725000e+01	Si
atom  1.77370000e+00 5.05312000e+00 2.92364000e+01	Si
atom  5.62419000e+00 4.55959000e+00 2.75647000e+01	N
atom  8.22476000e+00 3.49799000e+00 2.75203000e+01	N
atom  8.86933000e+00 4.19310000e+00 2.60891000e+01	Si
atom  6.98323000e+00 4.26527000e+00 2.85160000e+01	Si
atom  2.72856000e+00 3.69777000e+00 3.23618000e+01	N
atom  3.71638000e+00 4.54823000e+00 3.12286000e+01	Si
atom  4.24063000e+00 3.40901000e+00 3.45755000e+01	N
atom  1.34193000e+00 2.80758000e+00 3.45935000e+01	N
atom  2.91252000e+00 2.74016000e+00 3.37662000e+01	Si
atom  6.84337000e+00 4.68399000e+00 3.09649000e+01	Si
atom  9.41356000e+00 3.05882000e+00 3.37123000e+01	N
atom  7.86640000e+00 4.79845000e+00 3.22963000e+01	N
atom  9.52513000e+00 4.57122000e+00 3.29059000e+01	Si
atom  5.34604000e+00 4.91263000e+00 3.16940000e+01	N
atom  6.66298000e+00 3.24301000e+00 2.98923000e+01	N
atom  2.95732000e+00 4.43801000e+00 3.65198000e+01	N
atom  1.44541000e+00 3.65148000e+00 3.62567000e+01	Si
atom  3.11779000e+00 3.53822000e+00 3.91714000e+01	N
atom  4.01659000e+00 4.11290000e+00 3.78032000e+01	Si
atom  3.95188000e+00 4.99306000e+00 3.52694000e+01	Si
atom  5.43799000e+00 3.60022000e+00 3.69590000e+01	N
atom  7.90534000e+00 4.88146000e+00 3.55723000e+01	N
atom  8.36563000e+00 3.24455000e+00 3.50282000e+01	Si
atom  6.52040000e+00 5.05709000e+00 3.66296000e+01	Si
atom  -5.10443000e-01 3.63632000e+00 3.24843000e+01	N
atom  1.71275000e+00 2.65093000e+00 3.91132000e+01	Si
atom  1.02736000e+00 2.59922000e+00 3.75680000e+01	N
atom  3.10351000e+00 6.09911000e+00 4.28721000e+00	N
atom  1.43253000e+00 5.60341000e+00 -5.49668000e-02	N
atom  4.11025000e+00 5.16226000e+00 3.24837000e+00	Si
atom  3.07344000e+00 5.11286000e+00 3.01490000e-02	Si
atom  3.98998000e+00 5.02216000e+00 1.49098000e+00	N
atom  6.45722000e+00 7.10250000e+00 2.15258000e+00	Si
atom  6.22895000e+00 6.81743000e+00 4.99583000e-01	N
atom  8.13234000e+00 6.54560000e+00 2.66758000e+00	N
atom  5.74232000e+00 5.99866000e+00 3.27111000e+00	N
atom  6.97141000e+00 5.33510000e+00 4.21552000e+00	Si
atom  5.44706000e+00 5.26349000e+00 4.79740000e-01	Si
atom  -4.00523000e-01 5.28873000e+00 6.10794000e+00	Si
atom  2.74606000e+00 5.45742000e+00 9.14980000e+00	N
atom  2.60652000e+00 6.88913000e+00 7.06988000e+00	N
atom  1.49351000e+00 6.41474000e+00 8.33534000e+00	Si
atom  2.50496000e+00 5.65627000e+00 5.83830000e+00	Si
atom  1.18112000e-01 6.41923000e+00 7.31650000e+00	N
atom  4.14452000e+00 5.22540000e+00 8.10611000e+00	Si
atom  1.45677000e+00 7.43982000e+00 9.83929000e+00	N
atom  7.48747000e+00 6.42413000e+00 5.60012000e+00	N
atom  9.35213000e+00 7.09625000e+00 8.19942000e+00	N
atom  9.34185000e+00 5.41376000e+00 8.69907000e+00	Si
atom  6.72125000e+00 5.37552000e+00 6.75692000e+00	Si
atom  5.46608000e+00 6.32299000e+00 7.55198000e+00	N
atom  8.99067000e+00 4.99204000e+00 2.68685000e+00	Si
atom  2.87412000e+00 6.45461000e+00 1.04795000e+01	Si
atom  3.61412000e+00 5.54782000e+00 1.32349000e+01	Si
atom  2.44519000e+00 5.52254000e+00 1.18640000e+01	N
atom  3.16475000e+00 6.59262000e+00 1.44809000e+01	N
atom  4.42842000e+00 7.12106000e+00 1.05399000e+01	N
atom  5.76968000e+00 7.36137000e+00 1.34863000e+01	Si
atom  8.35878000e+00 5.93382000e+00 1.14481000e+01	Si
atom  5.43073000e+00 5.67198000e+00 1.32369000e+01	N
atom  6.93922000e+00 5.80457000e+00 1.05348000e+01	N
atom  6.15069000e+00 7.34943000e+00 1.05795000e+01	Si
atom  6.84037000e+00 7.32466000e+00 1.48846000e+01	N
atom  -1.81574000e-01 7.23010000e+00 1.52251000e+01	N
atom  3.69818000e+00 6.56903000e+00 1.61332000e+01	Si
atom  1.50898000e+00 6.14604000e+00 1.86681000e+01	Si
atom  2.28691000e+00 6.40994000e+00 1.72134000e+01	N
atom  3.56860000e-01 7.24271000e+00 1.93687000e+01	N
atom  6.51621000e+00 6.03654000e+00 1.61101000e+01	Si
atom  6.85135000e+00 7.18892000e+00 1.74036000e+01	N
atom  8.67014000e+00 5.35583000e+00 1.74714000e+01	N
atom  8.76007000e+00 7.13733000e+00 1.76438000e+01	Si
atom  4.95015000e+00 5.31016000e+00 1.63406000e+01	N
atom  -3.73367000e-01 6.78225000e+00 1.21691000e+01	N
atom  9.32323000e+00 7.33973000e+00 1.17752000e+01	N
atom  4.03160000e+00 5.73197000e+00 2.36845000e+01	Si
atom  1.34574000e-01 6.22087000e+00 2.42284000e+01	N
atom  2.98728000e+00 6.85814000e+00 2.12157000e+01	Si
atom  -1.68192000e-02 6.99016000e+00 2.10106000e+01	Si
atom  3.01030000e+00 7.05630000e+00 2.42473000e+01	N
atom  1.42972000e+00 7.31511000e+00 2.19609000e+01	N
atom  1.27708000e+00 7.36377000e+00 2.37137000e+01	Si
atom  2.69186000e+00 5.77143000e+00 1.99136000e+01	N
atom  4.47039000e+00 6.28030000e+00 2.20364000e+01	N
atom  5.88687000e+00 5.50205000e+00 2.12424000e+01	Si
atom  9.27410000e+00 5.94560000e+00 2.12691000e+01	N
atom  6.57624000e+00 7.03252000e+00 2.08822000e+01	N
atom  5.31043000e+00 5.74886000e+00 2.48030000e+01	N
atom  2.34309000e+00 6.75663000e+00 2.89698000e+01	N
atom  2.38501000e+00 6.84465000e+00 2.72090000e+01	Si
atom  6.85040000e-01 6.97912000e+00 2.69138000e+01	N
atom  3.36349000e+00 5.47192000e+00 2.69456000e+01	N
atom  7.23781000e+00 5.68729000e+00 2.95283000e+01	N
atom  7.96156000e+00 5.54857000e+00 2.53872000e+01	N
atom  4.99697000e+00 5.90600000e+00 2.65743000e+01	Si
atom  6.28771000e+00 7.13083000e+00 2.89583000e+01	Si
atom  8.50526000e+00 7.18558000e+00 2.58366000e+01	Si
atom  9.24586000e+00 6.87757000e+00 2.73633000e+01	N
atom  5.52958000e+00 7.28367000e+00 2.74053000e+01	N
atom  7.68847000e-01 5.92724000e+00 3.34291000e+01	N
atom  3.28873000e+00 6.28071000e+00 3.14567000e+01	N
atom  3.45489000e+00 6.32613000e+00 3.41643000e+01	N
atom  2.33882000e+00 6.61739000e+00 3.29079000e+01	Si
atom  6.05143000e-01 5.40847000e+00 3.04169000e+01	N
atom  -6.14625000e-02 5.19506000e+00 3.21149000e+01	Si
atom  5.11202000e+00 6.64628000e+00 3.17370000e+01	Si
atom  4.91667000e+00 7.26304000e+00 3.45151000e+01	Si
atom  7.83205000e+00 7.59030000e+00 3.48333000e+01	N
atom  8.83928000e+00 6.28369000e+00 3.53261000e+01	Si
atom  1.02521000e-01 6.32654000e+00 3.50116000e+01	Si
atom  4.44622000e+00 5.49039000e+00 3.89388000e+01	N
atom  9.57601000e+00 6.91359000e+00 3.67210000e+01	N
atom  3.03029000e-01 4.97842000e+00 3.60959000e+01	N
atom  6.34838000e+00 7.19863000e+00 3.87313000e+01	Si
atom  5.32546000e+00 5.97647000e+00 3.57237000e+01	N
atom  8.98866000e+00 6.11241000e+00 3.81253000e+01	Si
atom  7.22079000e+00 5.82938000e+00 3.79902000e+01	N
atom  3.04282000e+00 8.35364000e+00 2.22167000e+00	N
atom  1.30898000e+00 8.72734000e+00 2.13832000e+00	Si
atom  2.77200000e+00 7.78031000e+00 3.84227000e+00	Si
atom  1.06262000e+00 7.94561000e+00 3.71365000e+00	N
atom  4.79104000e-01 7.89169000e+00 9.25300000e-01	N
atom  4.34426000e+00 9.48323000e+00 1.94259000e+00	Si
atom  8.03149000e+00 8.76747000e+00 4.08078000e+00	N
atom  8.94792000e+00 8.02341000e+00 2.83984000e+00	Si
atom  9.03307000e+00 9.03349000e+00 1.43885000e+00	N
atom  5.83866000e+00 8.78906000e+00 2.45364000e+00	N
atom  8.13776000e+00 9.55500000e+00 1.32204000e-02	Si
atom  3.57185000e+00 8.60063000e+00 5.19663000e+00	N
atom  3.23272000e+00 8.40485000e+00 6.90051000e+00	Si
atom  1.21397000e+00 9.12876000e+00 9.12458000e+00	Si
atom  1.86176000e+00 9.30138000e+00 7.49788000e+00	N
atom  8.34243000e+00 8.50680000e+00 8.33606000e+00	Si
atom  4.58602000e+00 8.93935000e+00 7.85895000e+00	N
atom  6.87659000e+00 8.08351000e+00 9.21843000e+00	N
atom  5.95914000e+00 7.97059000e+00 7.72171000e+00	Si
atom  8.14985000e+00 8.00001000e+00 5.60109000e+00	Si
atom  7.27382000e+00 8.82781000e+00 6.87927000e+00	N
atom  -4.10291000e-01 9.02050000e+00 8.39537000e+00	N
atom  2.93014000e+00 8.26704000e+00 1.39027000e+01	Si
atom  1.96153000e+00 8.38509000e+00 1.24840000e+01	N
atom  6.02891000e-01 7.96637000e+00 1.14307000e+01	Si
atom  4.57623000e-01 9.62929000e+00 1.08480000e+01	N
atom  4.57728000e+00 8.60363000e+00 1.34631000e+01	N
atom  8.21555000e+00 8.65591000e+00 1.23461000e+01	Si
atom  8.46989000e+00 9.32182000e+00 1.38647000e+01	N
atom  6.79292000e+00 7.79501000e+00 1.21236000e+01	N
atom  5.64425000e+00 9.45958000e+00 1.88754000e+01	N
atom  3.33733000e+00 9.44891000e+00 1.65473000e+01	Si
atom  2.22147000e+00 9.02061000e+00 1.52737000e+01	N
atom  3.86651000e-01 8.99733000e+00 1.73193000e+01	N
atom  5.49557000e-01 8.75978000e+00 1.55928000e+01	Si
atom  4.45008000e+00 8.11539000e+00 1.66158000e+01	N
atom  4.06432000e+00 9.59945000e+00 1.94597000e+01	Si
atom  7.66641000e+00 8.73703000e+00 1.53170000e+01	Si
atom  9.06632000e+00 8.39654000e+00 1.63617000e+01	N
atom  8.86935000e+00 7.74005000e+00 1.92917000e+01	N
atom  5.92455000e+00 8.65855000e+00 1.74140000e+01	Si
atom  6.57893000e+00 9.75216000e+00 1.61735000e+01	N
atom  3.81951000e+00 8.25816000e+00 2.05199000e+01	N
atom  1.26744000e+00 8.76493000e+00 2.46634000e+01	N
atom  8.96218000e+00 8.73695000e+00 2.20021000e+01	N
atom  5.26496000e+00 7.94366000e+00 2.14183000e+01	Si
atom  5.38565000e+00 9.19095000e+00 2.25628000e+01	N
atom  9.45281000e+00 8.14762000e+00 2.46735000e+01	N
atom  8.33123000e+00 7.41023000e+00 2.09076000e+01	Si
atom  3.08687000e+00 8.60613000e+00 2.50230000e+01	Si
atom  3.12316000e+00 8.37071000e+00 2.67518000e+01	N
atom  7.78900000e+00 9.60513000e+00 2.76617000e+01	Si
atom  9.10083000e+00 7.92369000e+00 2.87333000e+01	Si
atom  8.62643000e+00 9.66982000e+00 2.51014000e+01	Si
atom  7.41136000e+00 8.51637000e+00 2.89034000e+01	N
atom  4.82062000e+00 8.74245000e+00 2.68628000e+01	Si
atom  4.74244000e+00 9.24222000e+00 2.52016000e+01	N
atom  7.64056000e+00 8.71474000e+00 2.61956000e+01	N
atom  2.08489000e+00 8.31359000e+00 3.28503000e+01	N
atom  1.10848000e+00 8.98644000e+00 3.41409000e+01	Si
atom  3.21777000e+00 9.23641000e+00 3.03811000e+01	N
atom  3.35024000e+00 7.47348000e+00 3.01461000e+01	Si
atom  8.44810000e+00 8.84604000e+00 3.23884000e+01	N
atom  7.18203000e+00 8.55803000e+00 3.36144000e+01	Si
atom  5.76558000e+00 7.57293000e+00 3.30219000e+01	N
atom  -7.66671000e-02 7.66530000e+00 3.80856000e+01	N
atom  2.52537000e+00 8.06535000e+00 3.88972000e+01	N
atom  9.31654000e-02 8.88379000e+00 3.67996000e+01	Si
atom  3.91187000e+00 9.04704000e+00 3.88063000e+01	Si
atom  5.86630000e-01 7.92942000e+00 3.54031000e+01	N
atom  5.24163000e+00 9.65256000e+00 3.66774000e+01	Si
atom  7.73887000e+00 8.39284000e+00 3.87160000e+01	N
atom  8.34435000e+00 9.53070000e+00 3.75216000e+01	Si
atom  5.21096000e+00 8.21805000e+00 3.79714000e+01	N
atom  4.63993000e+00 8.72464000e+00 3.52999000e+01	N
atom  2.70301000e+00 9.64859000e+00 3.19422000e+01	Si
atom  5.11367000e+00 7.31078000e+00 3.01262000e+01	N
atom  1.09814000e+00 7.25904000e+00 3.93118000e+01	Si
atom  3.66718000e+00 1.06147000e+01 3.25273000e+00	N
atom  5.74882000e-01 1.02448000e+01 2.24095000e+00	N
atom  4.14698000e+00 1.02005000e+01 4.82963000e+00	Si
atom  4.47997000e+00 9.92144000e+00 2.50619000e-01	N
atom  7.52966000e+00 1.12273000e+01 2.83632000e+00	N
atom  8.99139000e+00 1.14890000e+01 3.80353000e+00	Si
atom  7.03891000e+00 1.09022000e+01 1.02098000e-02	N
atom  6.78325000e+00 9.87531000e+00 3.54726000e+00	Si
atom  6.93064000e+00 1.19515000e+01 1.36869000e+00	Si
atom  3.21620000e+00 1.10883000e+01 6.00458000e+00	N
atom  1.72879000e+00 1.08465000e+01 6.82355000e+00	Si
atom  2.82839000e-01 1.14553000e+01 6.17223000e+00	N
atom  4.33358000e+00 9.95533000e+00 9.27881000e+00	Si
atom  7.07066000e+00 1.04865000e+01 6.28106000e+00	Si
atom  9.10990000e+00 9.99239000e+00 8.48869000e+00	N
atom  6.99455000e+00 1.18425000e+01 7.35795000e+00	N
atom  4.67640000e+00 1.15459000e+01 8.51147000e+00	N
atom  5.90601000e+00 1.03005000e+01 4.99252000e+00	N
atom  8.44337000e+00 1.12687000e+01 5.39194000e+00	N
atom  -4.65952000e-01 1.12446000e+01 1.38760000e+00	Si
atom  5.39627000e-02 1.14012000e+01 -2.48479000e-01	N
atom  3.19587000e+00 1.07897000e+01 1.24818000e+01	N
atom  -2.30021000e-01 1.12662000e+01 1.10011000e+01	Si
atom  2.10090000e+00 9.85234000e+00 1.15062000e+01	Si
atom  2.72564000e+00 9.89162000e+00 9.91825000e+00	N
atom  8.25966000e+00 9.90530000e+00 1.11724000e+01	N
atom  4.78832000e+00 1.01059000e+01 1.25474000e+01	Si
atom  6.26290000e+00 1.09407000e+01 1.28613000e+01	N
atom  6.70971000e+00 1.07194000e+01 1.12366000e+01	Si
atom  5.21836000e+00 9.96348000e+00 1.07753000e+01	N
atom  9.45299000e+00 1.07192000e+01 1.40195000e+01	Si
atom  -2.87426000e-01 1.00110000e+01 1.48135000e+01	N
atom  2.81785000e+00 9.69592000e+00 1.82066000e+01	N
atom  1.42534000e-01 1.12653000e+01 1.90351000e+01	N
atom  3.95016000e+00 1.10334000e+01 1.60467000e+01	N
atom  1.21551000e+00 1.03923000e+01 1.79818000e+01	Si
atom  1.41303000e+00 1.18293000e+01 1.68865000e+01	N
atom  6.09302000e+00 1.11336000e+01 1.95541000e+01	Si
atom  5.71333000e+00 1.12207000e+01 1.63153000e+01	Si
atom  6.19597000e+00 1.17771000e+01 1.79273000e+01	N
atom  3.02031000e-01 1.08985000e+01 2.19905000e+01	N
atom  1.55954000e+00 1.12195000e+01 2.31247000e+01	Si
atom  2.81068000e+00 1.00649000e+01 2.27693000e+01	N
atom  4.34183000e+00 1.06254000e+01 2.22093000e+01	Si
atom  7.29826000e-01 1.12757000e+01 2.47833000e+01	N
atom  4.52132000e+00 1.09370000e+01 2.04336000e+01	N
atom  4.92273000e+00 1.14771000e+01 2.35847000e+01	N
atom  7.50722000e+00 1.10379000e+01 2.06558000e+01	N
atom  7.41528000e+00 1.05116000e+01 2.41431000e+01	N
atom  8.94422000e+00 1.04682000e+01 2.15120000e+01	Si
atom  9.21526000e+00 1.17612000e+01 2.25919000e+01	N
atom  5.70683000e+00 1.00780000e+01 2.41551000e+01	Si
atom  3.87628000e+00 1.03674000e+01 2.92845000e+01	Si
atom  2.73503000e+00 1.15517000e+01 2.89175000e+01	N
atom  5.01089000e+00 1.00971000e+01 2.79768000e+01	N
atom  7.37262000e+00 1.12600000e+01 2.76794000e+01	N
atom  5.93850000e+00 1.16077000e+01 2.87202000e+01	Si
atom  -1.92682000e-02 9.77710000e+00 2.51159000e+01	Si
atom  1.45151000e+00 1.08170000e+01 3.14986000e+01	N
atom  4.05287000e+00 1.05062000e+01 3.27172000e+01	N
atom  4.04661000e+00 1.01317000e+01 3.44529000e+01	Si
atom  -2.59219000e-01 1.05625000e+01 3.19025000e+01	Si
atom  -3.18636000e-01 9.57298000e+00 3.34511000e+01	N
atom  2.31554000e+00 1.01273000e+01 3.47989000e+01	N
atom  5.35528000e+00 1.13834000e+01 3.96315000e+01	Si
atom  4.65341000e+00 1.17789000e+01 3.17203000e+01	Si
atom  8.57558000e+00 1.17366000e+01 3.17975000e+01	N
atom  8.57714000e+00 1.05357000e+01 3.30514000e+01	Si
atom  7.20028000e+00 1.02823000e+01 3.40054000e+01	N
atom  5.07929000e+00 1.12006000e+01 3.02364000e+01	N
atom  9.21865000e-01 1.18130000e+01 3.82901000e+01	Si
atom  3.96575000e+00 1.03061000e+01 3.76506000e+01	N
atom  1.71688000e+00 1.13830000e+01 3.57846000e+01	Si
atom  1.01791000e+00 1.05401000e+01 3.71235000e+01	N
atom  8.37698000e+00 1.22114000e+01 3.57094000e+01	N
atom  3.71974000e+00 1.20803000e+01 3.76049000e+01	Si
atom  6.78697000e+00 1.14232000e+01 3.53742000e+01	Si
atom  9.53390000e+00 9.89751000e+00 3.88630000e+01	N
atom  5.05977000e+00 1.11091000e+01 3.55122000e+01	N
atom  6.89265000e+00 1.00901000e+01 3.68001000e+01	N
atom  7.70779000e-01 1.34799000e+01 2.91000000e+00	Si
atom  1.52794000e+00 1.26074000e+01 4.23013000e+00	N
atom  4.01980000e+00 1.33228000e+01 3.42003000e+00	N
atom  1.97912000e+00 1.26865000e+01 1.77839000e+00	N
atom  2.14516000e+00 1.33704000e+01 2.19680000e-01	Si
atom  2.81520000e+00 1.20124000e+01 3.16796000e+00	Si
atom  4.40570000e+00 1.38036000e+01 1.78020000e+00	Si
atom  8.54481000e-01 1.44904000e+01 -1.84970000e-01	N
atom  7.88559000e+00 1.33537000e+01 1.07211000e+00	N
atom  5.27836000e+00 1.23583000e+01 1.21431000e+00	N
atom  9.42996000e+00 1.30723000e+01 3.34800000e+00	N
atom  5.73026000e+00 1.41062000e+01 8.63529000e+00	N
atom  2.46829000e-01 1.40161000e+01 9.54392000e+00	N
atom  3.96479000e+00 1.36681000e+01 6.48134000e+00	N
atom  1.50814000e+00 1.36400000e+01 8.47606000e+00	Si
atom  5.15623000e-01 1.30853000e+01 5.57098000e+00	Si
atom  3.67818000e+00 1.21974000e+01 7.30690000e+00	Si
atom  9.24834000e-01 1.41996000e+01 6.85413000e+00	N
atom  3.05362000e+00 1.43151000e+01 9.01332000e+00	N
atom  2.08632000e+00 1.20454000e+01 8.01842000e+00	N
atom  6.15183000e+00 1.24632000e+01 8.73968000e+00	Si
atom  8.03446000e+00 1.40201000e+01 5.72847000e+00	N
atom  8.31352000e+00 1.25622000e+01 6.55030000e+00	Si
atom  3.51589000e+00 1.45055000e+01 4.83902000e-01	N
atom  9.24657000e+00 1.43969000e+01 4.53112000e+00	Si
atom  3.81940000e+00 1.35224000e+01 1.20890000e+01	N
atom  1.98425000e+00 1.27306000e+01 1.41475000e+01	N
atom  8.53356000e-01 1.38896000e+01 1.12072000e+01	Si
atom  5.11504000e-01 1.36165000e+01 1.42800000e+01	Si
atom  2.57042000e+00 1.23693000e+01 1.25548000e+01	Si
atom  1.23638000e+00 1.22280000e+01 1.14306000e+01	N
atom  4.12605000e-02 1.42949000e+01 1.27178000e+01	N
atom  7.82661000e+00 1.33268000e+01 1.11534000e+01	Si
atom  6.78503000e+00 1.34959000e+01 1.25751000e+01	N
atom  6.88688000e+00 1.23181000e+01 1.38378000e+01	Si
atom  9.39299000e+00 1.32835000e+01 1.19575000e+01	N
atom  9.52799000e+00 1.35408000e+01 1.36733000e+01	Si
atom  6.92548000e+00 1.21696000e+01 1.02865000e+01	N
atom  5.27144000e+00 1.42988000e+01 1.26285000e+01	Si
atom  1.12525000e+00 1.38321000e+01 1.90724000e+01	N
atom  3.95053000e-01 1.27828000e+01 1.80530000e+01	Si
atom  3.43830000e+00 1.38284000e+01 1.62095000e+01	N
atom  2.75547000e+00 1.22823000e+01 1.57406000e+01	Si
atom  8.39281000e+00 1.37319000e+01 1.81285000e+01	N
atom  6.05101000e+00 1.26189000e+01 1.53061000e+01	N
atom  6.71251000e+00 1.33889000e+01 1.82844000e+01	Si
atom  5.14299000e+00 1.40176000e+01 1.57117000e+01	Si
atom  5.86887000e+00 1.46166000e+01 1.72572000e+01	N
atom  8.55346000e+00 1.21999000e+01 1.41612000e+01	N
atom  2.52138000e+00 1.26086000e+01 2.32105000e+01	N
atom  3.76943000e+00 1.24538000e+01 2.44047000e+01	Si
atom  3.95451000e+00 1.42133000e+01 2.45575000e+01	N
atom  2.38853000e+00 1.42784000e+01 2.37201000e+01	Si
atom  7.65747000e+00 1.27436000e+01 2.10115000e+01	Si
atom  7.14815000e+00 1.32643000e+01 2.25566000e+01	N
atom  9.19967000e+00 1.35189000e+01 2.06733000e+01	N
atom  6.31572000e+00 1.30858000e+01 2.00197000e+01	N
atom  7.88037000e+00 1.20888000e+01 2.36739000e+01	Si
atom  9.66993000e-01 1.40650000e+01 2.47463000e+01	N
atom  2.53101000e+00 1.40268000e+01 2.77716000e+01	N
atom  3.41953000e+00 1.25336000e+01 2.76134000e+01	Si
atom  1.00349000e+00 1.34880000e+01 2.83222000e+01	Si
atom  1.10075000e+00 1.26717000e+01 2.57286000e+01	Si
atom  2.88691000e-01 1.23326000e+01 2.72272000e+01	N
atom  2.97207000e+00 1.21541000e+01 2.59250000e+01	N
atom  7.46173000e+00 1.43666000e+01 2.72722000e+01	N
atom  7.14823000e+00 1.27767000e+01 2.95518000e+01	N
atom  5.10034000e+00 1.29171000e+01 2.79293000e+01	N
atom  8.33804000e+00 1.29035000e+01 2.50261000e+01	N
atom  8.07014000e+00 1.28276000e+01 2.80482000e+01	Si
atom  3.22889000e+00 1.28408000e+01 3.14949000e+01	N
atom  1.06023000e+00 1.39442000e+01 3.26219000e+01	N
atom  -1.45006000e-01 1.29893000e+01 3.34007000e+01	Si
atom  3.79726000e+00 1.40497000e+01 3.39714000e+01	N
atom  8.13230000e-01 1.31934000e+01 3.00385000e+01	N
atom  2.76170000e+00 1.41797000e+01 3.25535000e+01	Si
atom  2.00467000e+00 1.20705000e+01 3.05096000e+01	Si
atom  5.94100000e+00 1.27741000e+01 3.22901000e+01	N
atom  5.45863000e+00 1.37349000e+01 3.36023000e+01	Si
atom  7.40773000e+00 1.29220000e+01 3.12759000e+01	Si
atom  5.75031000e+00 1.40552000e+01 3.78065000e+01	Si
atom  5.25386000e-01 1.21953000e+01 3.47569000e+01	N
atom  2.76981000e+00 1.27522000e+01 3.63041000e+01	N
atom  2.43668000e-01 1.30220000e+01 3.73473000e+01	N
atom  2.50787000e+00 1.22493000e+01 3.89087000e+01	N
atom  -1.32919000e-01 1.43394000e+01 3.83224000e+01	Si
atom  3.33513000e+00 1.43321000e+01 3.57134000e+01	Si
atom  7.80256000e+00 1.38420000e+01 3.54744000e+01	Si
atom  6.34077000e+00 1.31947000e+01 3.49173000e+01	N
atom  5.23281000e+00 1.24898000e+01 3.83544000e+01	N
atom  7.18492000e+00 1.45609000e+01 3.69022000e+01	N
atom  1.05598000e+00 1.51240000e+01 2.65492000e+00	N
atom  3.69682000e-01 1.56327000e+01 1.11671000e+00	Si
atom  3.13068000e+00 1.61778000e+01 6.14385000e-01	Si
atom  2.11077000e+00 1.62640000e+01 3.42901000e+00	Si
atom  3.56016000e+00 1.63510000e+01 2.41947000e+00	N
atom  9.35327000e+00 1.56606000e+01 9.73139000e+00	Si
atom  7.06243000e+00 1.48425000e+01 9.31697000e-01	Si
atom  5.74708000e+00 1.48769000e+01 1.99449000e+00	N
atom  8.10592000e+00 1.62005000e+01 1.24598000e+00	N
atom  8.07494000e+00 1.56352000e+01 3.84784000e+00	N
atom  5.15847000e+00 1.61159000e+01 3.06154000e+00	Si
atom  5.30269000e+00 1.53727000e+01 4.59991000e+00	N
atom  6.65445000e+00 1.67282000e+01 8.99398000e+00	N
atom  2.46729000e+00 1.54141000e+01 4.93446000e+00	N
atom  1.44683000e+00 1.57768000e+01 6.26390000e+00	Si
atom  -1.65497000e-01 1.63077000e+01 5.78474000e+00	N
atom  4.33346000e+00 1.47345000e+01 7.84695000e+00	Si
atom  4.36895000e+00 1.63947000e+01 7.60615000e+00	N
atom  6.45404000e+00 1.51651000e+01 9.70169000e+00	Si
atom  6.92197000e+00 1.52965000e+01 5.14917000e+00	Si
atom  7.19693000e+00 1.63729000e+01 6.46232000e+00	N
atom  3.86703000e+00 1.43908000e+01 4.88956000e+00	Si
atom  2.00951000e+00 1.52601000e+01 1.13474000e+01	N
atom  3.60119000e+00 1.47446000e+01 1.06212000e+01	Si
atom  4.51478000e+00 1.65548000e+01 1.43498000e+01	Si
atom  5.21885000e+00 1.50070000e+01 1.42345000e+01	N
atom  5.39282000e+00 1.52217000e+01 1.11310000e+01	N
atom  8.05019000e+00 1.45953000e+01 1.01430000e+01	N
atom  4.01041000e+00 1.44870000e+01 1.94624000e+01	N
atom  2.31043000e+00 1.60489000e+01 1.77158000e+01	N
atom  2.94739000e+00 1.64982000e+01 1.50943000e+01	N
atom  8.76586000e-01 1.48855000e+01 1.54465000e+01	N
atom  2.39686000e+00 1.52569000e+01 1.61509000e+01	Si
atom  2.43656000e+00 1.49853000e+01 1.90325000e+01	Si
atom  3.57002000e+00 1.67360000e+01 1.01743000e+01	N
atom  5.85915000e+00 1.60693000e+01 1.81232000e+01	Si
atom  2.45864000e+00 1.57986000e+01 2.30168000e+01	N
atom  1.71482000e+00 1.58644000e+01 2.03478000e+01	N
atom  -2.71819000e-02 1.51140000e+01 2.21056000e+01	N
atom  8.13619000e-01 1.63983000e+01 2.28927000e+01	Si
atom  3.99553000e+00 1.64946000e+01 2.26178000e+01	Si
atom  2.14570000e-01 1.47539000e+01 2.03339000e+01	Si
atom  -2.32668000e-03 1.66369000e+01 2.43594000e+01	N
atom  7.62310000e+00 1.65938000e+01 2.05762000e+01	Si
atom  7.59058000e+00 1.61092000e+01 2.22743000e+01	N
atom  5.01698000e+00 1.51862000e+01 2.20637000e+01	N
atom  6.57981000e+00 1.48046000e+01 2.28467000e+01	Si
atom  6.51939000e+00 1.50022000e+01 2.45861000e+01	N
atom  9.38791000e+00 1.66867000e+01 2.02755000e+01	N
atom  5.35685000e+00 1.45029000e+01 2.05212000e+01	Si
atom  -5.83009000e-02 1.48189000e+01 2.80241000e+01	N
atom  3.12805000e+00 1.56859000e+01 2.77755000e+01	Si
atom  1.37296000e-01 1.65131000e+01 2.78404000e+01	Si
atom  3.63858000e+00 1.65439000e+01 2.91564000e+01	N