lattice_vector  3.99917830e+01 0.00000000e+00 0.00000000e+00
lattice_vector  2.44879045e-15 3.99917830e+01 0.00000000e+00
lattice_vector  2.44879045e-15 2.44879045e-15 3.99917830e+01
atom  6.56540000e-01 4.87601000e+00 2.07472000e-01	N
atom  1.35518000e+00 5.05558000e+00 3.18392000e+00	N
atom  1.64180000e+00 2.83684000e+00 1.30771000e+00	N
atom  1.78588000e+00 4.60990000e+00 1.56312000e+00	Si
atom  6.65691000e-01 3.16046000e+00 -1.47339000e-01	Si
atom  4.53387000e-01 8.94012000e+00 3.50150000e-01	Si
atom  3.13530000e-01 7.45289000e+00 3.79301000e+00	N
atom  -1.63346000e-01 5.84986000e+00 3.54660000e+00	Si
atom  1.55191000e+00 1.00129000e+01 3.33910000e+00	N
atom  1.54414000e+00 8.25551000e+00 2.93267000e+00	Si
atom  -3.19675000e-01 7.44808000e+00 -9.94055000e-02	N
atom  -2.90588000e-01 4.50197000e+00 7.68767000e+00	N
atom  9.24287000e-01 1.55407000e+00 7.70256000e+00	N
atom  5.67833000e-01 1.79154000e+00 9.43249000e+00	Si
atom  1.37452000e+00 3.68093000e+00 5.61874000e+00	N
atom  -2.50546000e-01 3.95518000e+00 6.03486000e+00	Si
atom  -3.47197000e-01 7.00743000e+00 8.97598000e+00	N
atom  -9.46464000e-02 9.80826000e+00 5.45407000e+00	N
atom  4.27659000e-01 8.16490000e+00 5.37565000e+00	Si
atom  6.07347000e-01 6.08239000e+00 7.82709000e+00	Si
atom  1.64416000e+00 1.01365000e+01 5.06190000e+00	Si
atom  3.83726000e-02 6.89852000e+00 6.45777000e+00	N
atom  3.44871000e-01 3.90518000e+00 1.26471000e+01	N
atom  5.74897000e-01 4.35752000e+00 1.09021000e+01	Si
atom  6.84765000e-01 5.03876000e+00 1.40180000e+01	Si
atom  1.40705000e+00 3.15585000e+00 9.93425000e+00	N
atom  -3.79162000e-01 1.94753000e+00 1.46370000e+01	N
atom  6.74184000e-02 3.47487000e-01 1.19408000e+01	Si
atom  5.24671000e-01 2.36905000e-01 1.02290000e+01	N
atom  1.59075000e+00 5.78324000e+00 1.06197000e+01	N
atom  7.54538000e-01 7.34806000e+00 1.03301000e+01	Si
atom  4.60253000e-01 7.68884000e+00 1.20023000e+01	N
atom  7.93787000e-01 9.51259000e+00 1.44886000e+01	Si
atom  -4.21405000e-01 4.52355000e+00 1.67895000e+01	Si
atom  1.19571000e+00 2.48550000e+00 1.51818000e+01	Si
atom  2.03248000e-01 3.29825000e+00 1.80549000e+01	N
atom  8.67741000e-01 9.26500000e-01 1.91691000e+01	N
atom  1.64498000e+00 1.53626000e+00 1.64898000e+01	N
atom  4.05474000e-01 1.61927000e+00 1.76948000e+01	Si
atom  7.69595000e-01 4.13610000e+00 1.55687000e+01	N
atom  7.24597000e-01 4.75148000e+00 1.90142000e+01	Si
atom  -3.90467000e-01 5.71932000e+00 1.81101000e+01	N
atom  8.34191000e-01 9.65123000e+00 1.89593000e+01	Si
atom  9.26180000e-01 7.95484000e+00 1.85698000e+01	N
atom  1.04242000e+00 1.01046000e+01 1.60394000e+01	N
atom  5.60549000e-01 1.90474000e+00 2.26659000e+01	Si
atom  1.13453000e+00 3.51855000e+00 2.30352000e+01	N
atom  -6.92609000e-02 1.26086000e+00 2.41408000e+01	N
atom  5.64938000e-01 5.05103000e+00 2.07152000e+01	N
atom  1.26765000e+00 3.96134000e+00 2.47003000e+01	Si
atom  1.83814000e+00 4.44543000e+00 2.17754000e+01	Si
atom  1.08828000e+00 9.02410000e+00 2.43594000e+01	Si
atom  6.26793000e-01 9.72433000e+00 2.06801000e+01	N
atom  -2.30772000e-01 9.14731000e+00 2.32888000e+01	N
atom  4.89994000e-01 2.30104000e+00 2.79078000e+01	N
atom  -1.71946000e-01 3.78722000e+00 2.73216000e+01	Si
atom  -1.67090000e-01 3.56055000e+00 2.56376000e+01	N
atom  1.71834000e+00 1.17535000e+00 2.75406000e+01	Si
atom  1.89650000e+00 6.20826000e+00 2.83885000e+01	Si
atom  1.44454000e+00 5.69669000e+00 2.47572000e+01	N
atom  8.55630000e-01 8.05306000e+00 2.58135000e+01	N
atom  1.21572000e+00 8.85299000e+00 2.94149000e+01	Si
atom  3.28697000e-01 6.31735000e+00 2.59836000e+01	Si
atom  1.78645000e+00 9.60601000e+00 2.80116000e+01	N
atom  8.06279000e-01 5.26041000e+00 2.74226000e+01	N
atom  6.96320000e-01 7.26055000e+00 2.91151000e+01	N
atom  6.94853000e-01 1.28882000e+00 3.14656000e+01	Si
atom  5.77383000e-01 4.29547000e+00 3.22973000e+01	Si
atom  1.60118000e+00 9.66067000e-01 3.29985000e+01	N
atom  -1.54945000e-01 2.68680000e+00 3.21674000e+01	N
atom  4.10507000e-01 5.00210000e+00 3.07867000e+01	N
atom  -1.00182000e-02 5.51159000e+00 3.34940000e+01	N
atom  9.61715000e-01 8.18408000e+00 3.42196000e+01	N
atom  6.87039000e-01 7.00949000e+00 3.29443000e+01	Si
atom  -4.87881000e-02 9.71260000e+00 3.01192000e+01	N
atom  -2.70513000e-01 7.46395000e+00 3.15868000e+01	N
atom  1.27185000e+00 2.26822000e+00 3.84962000e+01	N
atom  1.09042000e+00 4.12306000e+00 3.60064000e+01	N
atom  1.63953000e+00 1.15807000e+00 3.61517000e+01	N
atom  -9.76341000e-02 5.06382000e+00 3.52433000e+01	Si
atom  1.66192000e+00 2.80286000e+00 3.68759000e+01	Si
atom  1.75891000e+00 5.40568000e-01 3.85600000e+01	Si
atom  9.00130000e-02 3.89893000e-01 3.63275000e+01	Si
atom  1.52293000e+00 1.02296000e+01 3.74027000e+01	Si
atom  9.02953000e-01 1.01896000e+01 3.92255000e+01	N
atom  1.82270000e-01 9.18930000e+00 3.67865000e+01	N
atom  7.81326000e-01 7.79272000e+00 3.59501000e+01	Si
atom  4.02835000e-01 1.09264000e+01 2.37757000e+00	Si
atom  1.25703000e+00 1.20425000e+01 1.48403000e+00	N
atom  1.77335000e+00 1.50377000e+01 -1.26128000e-01	Si
atom  9.56446000e-01 1.63150000e+01 6.68752000e-01	N
atom  1.28679000e+00 1.88555000e+01 2.23005000e+00	N
atom  -3.29596000e-01 1.85294000e+01 3.18256000e+00	Si
atom  7.67332000e-01 1.89817000e+01 4.68336000e+00	N
atom  -2.37144000e-01 1.67829000e+01 2.95962000e+00	N
atom  8.71133000e-01 1.36879000e+01 4.96088000e+00	Si
atom  1.15063000e+00 1.48974000e+01 6.20919000e+00	N
atom  6.58485000e-01 1.33181000e+01 8.87727000e+00	N
atom  2.66724000e-01 1.23977000e+01 5.93398000e+00	N
atom  -3.56512000e-01 1.29357000e+01 7.52777000e+00	Si
atom  9.25853000e-01 1.48725000e+01 9.74872000e+00	Si
atom  1.57588000e+00 1.74405000e+01 8.52551000e+00	Si
atom  -1.67190000e-01 1.56245000e+01 7.02323000e+00	Si
atom  6.18362000e-01 1.60094000e+01 8.49292000e+00	N
atom  -2.46071000e-01 1.92232000e+01 8.00582000e+00	Si
atom  8.32282000e-01 1.81842000e+01 7.09727000e+00	N
atom  5.53888000e-01 1.07030000e+01 1.32485000e+01	N
atom  -1.72206000e-01 1.50279000e+01 1.10236000e+01	N
atom  -3.24319000e-01 1.11666000e+01 1.03593000e+01	N
atom  1.18850000e+00 1.20231000e+01 9.84515000e+00	Si
atom  1.80875000e+00 1.25540000e+01 1.14142000e+01	N
atom  1.85119000e+00 1.72983000e+01 1.38308000e+01	Si
atom  7.46008000e-01 1.95679000e+01 1.43499000e+01	Si
atom  5.03948000e-01 1.61212000e+01 1.36634000e+01	N
atom  1.13267000e+00 1.93478000e+01 1.13835000e+01	Si
atom  1.44764000e+00 1.87281000e+01 1.29275000e+01	N
atom  1.45348000e+00 1.82600000e+01 1.00113000e+01	N
atom  -4.49540000e-01 2.00457000e+01 1.11647000e+01	N
atom  9.89740000e-02 1.25127000e+01 1.67476000e+01	N
atom  1.40347000e+00 1.30880000e+01 1.58486000e+01	Si
atom  1.26524000e+00 1.48189000e+01 1.60931000e+01	N
atom  -3.77572000e-01 1.08224000e+01 1.67134000e+01	Si
atom  -3.64358000e-01 1.93381000e+01 1.72529000e+01	N
atom  1.49547000e+00 1.82098000e+01 1.53695000e+01	N
atom  1.79528000e+00 1.55315000e+01 1.75796000e+01	Si
atom  5.41573000e-01 1.62224000e+01 1.86382000e+01	N
atom  -6.76463000e-02 1.55910000e+01 1.52294000e+01	Si
atom  1.15224000e+00 1.18260000e+01 2.40830000e+01	Si
atom  1.04133000e-02 1.29086000e+01 2.13098000e+01	Si
atom  -7.09427000e-02 1.22270000e+01 2.29387000e+01	N
atom  1.48373000e+00 1.23968000e+01 2.04757000e+01	N
atom  1.86415000e+00 1.08721000e+01 2.12782000e+01	Si
atom  1.23052000e+00 1.53484000e+01 2.34115000e+01	N
atom  4.30790000e-02 1.69987000e+01 2.15161000e+01	N
atom  1.15959000e+00 1.64263000e+01 2.02681000e+01	Si
atom  -2.54355000e-01 1.57836000e+01 2.27079000e+01	Si
atom  1.18188000e+00 1.91640000e+01 2.44554000e+01	N
atom  -8.63829000e-02 1.79945000e+01 2.48641000e+01	Si
atom  1.50552000e+00 1.19970000e+01 2.76008000e+01	N
atom  9.88926000e-01 1.33781000e+01 2.67770000e+01	Si
atom  1.33208000e+00 1.31783000e+01 2.50866000e+01	N
atom  7.98474000e-01 1.05600000e+01 2.52983000e+01	N
atom  6.42291000e-01 1.06075000e+01 2.70381000e+01	Si
atom  1.81580000e+00 1.47902000e+01 2.69803000e+01	N
atom  3.42262000e-01 1.86941000e+01 2.97712000e+01	N
atom  8.65229000e-02 2.01167000e+01 2.72674000e+01	N
atom  1.05104000e+00 1.73772000e+01 2.61264000e+01	N
atom  4.96797000e-01 2.02419000e+01 2.90009000e+01	Si
atom  -6.60197000e-02 1.62642000e+01 2.85534000e+01	N
atom  1.27761000e+00 1.64003000e+01 2.74695000e+01	Si
atom  1.15536000e+00 1.21374000e+01 3.29173000e+01	Si
atom  1.40377000e+00 1.46689000e+01 3.09446000e+01	Si
atom  -8.87420000e-02 1.41454000e+01 3.02989000e+01	N
atom  1.26755000e+00 1.26276000e+01 3.46680000e+01	N
atom  3.78543000e-01 1.51829000e+01 3.37702000e+01	N
atom  1.50023000e+00 1.43759000e+01 3.46930000e+01	Si
atom  1.83866000e+00 1.33405000e+01 3.19621000e+01	N
atom  9.38866000e-01 1.66971000e+01 3.31102000e+01	Si
atom  1.37593000e+00 1.64486000e+01 3.14179000e+01	N
atom  1.56507000e+00 1.81684000e+01 3.08446000e+01	Si
atom  1.73841000e+00 1.90919000e+01 3.23388000e+01	N
atom  1.13200000e+00 1.20046000e+01 3.72914000e+01	N
atom  9.03924000e-01 1.19177000e+01 3.97586000e+01	Si
atom  8.39871000e-01 1.36599000e+01 3.93542000e+01	N
atom  1.19149000e+00 1.48867000e+01 3.62947000e+01	N
atom  5.45645000e-03 1.22286000e+01 3.58860000e+01	Si
atom  -4.91171000e-01 1.49128000e+01 3.67918000e+01	Si
atom  -1.02255000e-01 2.02489000e+01 3.68398000e+01	N
atom  5.14679000e-01 2.20910000e+01 1.15155000e+00	N
atom  8.57717000e-01 2.50489000e+01 2.76394000e+00	N
atom  8.45082000e-01 2.79661000e+01 2.72003000e+00	N
atom  2.03971000e-01 2.64610000e+01 3.35390000e+00	Si
atom  1.54013000e+00 2.92954000e+01 4.26749000e-01	Si
atom  -1.37832000e-01 2.93605000e+01 7.40025000e-01	N
atom  -1.18703000e-01 2.96416000e+01 4.44137000e+00	N
atom  -2.93666000e-01 2.93342000e+01 2.58638000e+00	Si
atom  7.36871000e-01 2.05877000e+01 8.50631000e+00	N
atom  3.29552000e-01 2.32203000e+01 6.80626000e+00	Si
atom  1.07922000e+00 2.48177000e+01 7.02280000e+00	N
atom  1.62206000e+00 2.22308000e+01 6.33392000e+00	N
atom  -4.72102000e-01 2.48046000e+01 9.36910000e+00	N
atom  1.65141000e+00 2.82383000e+01 8.09026000e+00	Si
atom  -1.58336000e-01 2.55022000e+01 6.13993000e+00	Si
atom  8.90998000e-01 2.72655000e+01 9.27237000e+00	N
atom  1.22681000e-01 2.67531000e+01 5.04251000e+00	N
atom  2.69170000e-01 2.87477000e+01 7.07580000e+00	N
atom  7.78291000e-01 2.84256000e+01 5.38929000e+00	Si
atom  6.76639000e-02 2.25320000e+01 1.05750000e+01	N
atom  1.55642000e+00 2.38370000e+01 1.41483000e+01	N
atom  1.23439000e+00 2.15297000e+01 9.90030000e+00	Si
atom  1.04967000e+00 2.54935000e+01 1.16607000e+01	N
atom  1.73480000e-01 2.84566000e+01 1.02961000e+01	Si
atom  -2.03882000e-01 2.60631000e+01 1.40930000e+01	N
atom  1.27925000e+00 2.83202000e+01 1.44869000e+01	N
atom  1.53527000e+00 2.93731000e+01 1.05171000e+01	N
atom  -2.93111000e-01 2.62634000e+01 1.23839000e+01	Si
atom  -3.49890000e-01 2.78924000e+01 1.19156000e+01	N
atom  9.12825000e-01 2.55698000e+01 9.94686000e+00	Si
atom  3.56512000e-01 2.47255000e+01 1.50200000e+01	Si
atom  1.25152000e+00 2.21582000e+01 1.94505000e+01	Si
atom  5.73075000e-01 2.18792000e+01 1.78657000e+01	N
atom  1.10931000e+00 2.09279000e+01 1.52492000e+01	N
atom  9.83474000e-01 2.05053000e+01 1.69475000e+01	Si
atom  1.01312000e+00 2.50114000e+01 1.66843000e+01	N
atom  9.77086000e-01 2.65966000e+01 1.72956000e+01	Si
atom  -2.59608000e-01 2.76381000e+01 1.48204000e+01	Si
atom  -3.59848000e-01 2.74494000e+01 1.65653000e+01	N
atom  1.77324000e+00 2.96448000e+01 1.90017000e+01	N
atom  1.07644000e+00 2.67965000e+01 1.90675000e+01	N
atom  1.49938000e-01 2.32957000e+01 2.38869000e+01	Si
atom  9.53837000e-01 2.11532000e+01 2.21035000e+01	N
atom  1.11435000e+00 2.06561000e+01 2.37711000e+01	Si
atom  1.42775000e+00 2.42143000e+01 2.32460000e+01	N
atom  -1.33720000e-01 2.49880000e+01 2.10668000e+01	N
atom  3.00778000e-01 2.18245000e+01 2.47908000e+01	N
atom  1.22460000e+00 2.54151000e+01 2.20411000e+01	Si
atom  7.23579000e-01 2.93860000e+01 2.16180000e+01	N
atom  4.68119000e-01 2.66694000e+01 2.29611000e+01	N
atom  1.18358000e+00 2.91572000e+01 2.44671000e+01	N
atom  4.99406000e-01 2.60683000e+01 2.46185000e+01	Si
atom  -3.17465000e-01 2.81305000e+01 2.22470000e+01	Si
atom  1.81797000e+00 2.97765000e+01 2.28840000e+01	Si
atom  5.39889000e-01 3.02653000e+01 2.00886000e+01	Si
atom  5.96000000e-01 2.16079000e+01 2.64569000e+01	Si
atom  1.32210000e+00 2.38867000e+01 2.92585000e+01	N
atom  -3.46657000e-01 2.49008000e+01 2.94321000e+01	Si
atom  -4.21742000e-01 2.45387000e+01 2.49790000e+01	N
atom  1.72043000e+00 2.95956000e+01 2.60606000e+01	Si
atom  2.93327000e-01 2.97529000e+01 2.96159000e+01	N
atom  7.84162000e-01 2.62078000e+01 2.97542000e+01	N
atom  1.10804000e-01 2.95402000e+01 2.66506000e+01	N
atom  1.06527000e+00 2.18052000e+01 3.14058000e+01	N
atom  1.25590000e+00 2.07348000e+01 3.27293000e+01	Si
atom  9.93297000e-02 2.36522000e+01 3.36207000e+01	N
atom  1.58276000e+00 2.31230000e+01 3.43710000e+01	Si
atom  -4.14078000e-02 2.02928000e+01 3.38217000e+01	N
atom  -3.90574000e-01 2.47893000e+01 3.24326000e+01	Si
atom  8.33869000e-01 2.61357000e+01 3.24620000e+01	N
atom  6.57913000e-01 2.72839000e+01 3.11309000e+01	Si
atom  4.17776000e-01 2.06879000e+01 3.83657000e+01	Si
atom  5.75308000e-01 2.33555000e+01 3.71725000e+01	Si
atom  6.14269000e-01 2.24315000e+01 3.56831000e+01	N
atom  6.53859000e-01 2.07468000e+01 3.53406000e+01	Si
atom  -9.75925000e-04 2.23539000e+01 3.84652000e+01	N
atom  1.73154000e+00 2.73009000e+01 3.48511000e+01	N
atom  4.07835000e-01 2.97489000e+01 3.62248000e+01	N
atom  1.33901000e+00 2.90658000e+01 3.85554000e+01	N
atom  3.08524000e-01 2.81844000e+01 3.53140000e+01	Si
atom  4.88241000e-01 2.61994000e+01 3.90400000e+01	N
atom  7.81010000e-01 2.74621000e+01 3.79086000e+01	Si
atom  -3.04654000e-01 2.72695000e+01 3.66354000e+01	N
atom  -1.17235000e-01 2.99124000e+01 3.78157000e+01	Si
atom  9.11385000e-01 3.21265000e+01 1.32984000e+00	Si
atom  3.69657000e-01 3.12622000e+01 4.33488000e+00	Si
atom  3.82337000e-02 3.13070000e+01 2.60107000e+00	N
atom  1.92318000e+00 3.32825000e+01 2.15812000e+00	N
atom  1.04099000e+00 3.54135000e+01 3.22706000e-01	N
atom  8.11362000e-01 3.79707000e+01 1.32569000e+00	N
atom  1.01442000e+00 3.76869000e+01 3.01501000e+00	Si
atom  -1.07747000e-01 3.66886000e+01 4.70323000e-01	Si
atom  1.62890000e+00 3.59051000e+01 3.15406000e+00	N
atom  1.86206000e+00 3.90278000e+01 3.82057000e+00	N
atom  1.47955000e+00 3.42723000e+01 5.86264000e+00	N
atom  8.85755000e-02 3.48680000e+01 6.55449000e+00	Si
atom  1.21403000e+00 3.16279000e+01 6.95947000e+00	N
atom  -3.01978000e-01 4.02908000e+01 7.30226000e+00	Si
atom  1.36009000e-01 3.96183000e+01 5.73017000e+00	N
atom  1.86768000e+00 3.97287000e+01 5.35291000e+00	Si
atom  5.64926000e-01 3.64845000e+01 7.04859000e+00	N
atom  3.17258000e-01 3.10978000e+01 1.42999000e+01	N
atom  1.19982000e+00 3.24058000e+01 1.18852000e+01	N
atom  1.07109000e+00 3.27466000e+01 1.01588000e+01	Si
atom  4.45608000e-01 3.49374000e+01 1.33086000e+01	Si
atom  -1.38698000e-01 3.19139000e+01 1.28410000e+01	Si
atom  5.70943000e-01 3.44259000e+01 9.98868000e+00	N
atom  9.39650000e-01 3.83550000e+01 1.31119000e+01	Si
atom  9.05997000e-01 3.60452000e+01 1.06143000e+01	Si
atom  -1.74214000e-02 3.60187000e+01 1.21139000e+01	N
atom  1.14002000e-01 3.79704000e+01 1.45452000e+01	N
atom  1.45889000e+00 4.00914000e+01 1.29296000e+01	N
atom  3.75519000e-02 3.72560000e+01 9.88572000e+00	N
atom  -4.77007000e-01 3.86984000e+01 1.19817000e+01	N
atom  -1.02683000e-01 3.37988000e+01 1.53188000e+01	Si
atom  1.29015000e+00 3.29475000e+01 1.59901000e+01	N
atom  -6.57651000e-02 3.30814000e+01 1.94023000e+01	Si
atom  9.57339000e-01 3.42403000e+01 1.86492000e+01	N
atom  1.77835000e+00 3.15138000e+01 1.51868000e+01	Si
atom  8.15034000e-01 3.69386000e+01 1.57378000e+01	Si
atom  4.64091000e-01 3.53406000e+01 1.50083000e+01	N
atom  5.70541000e-01 3.59687000e+01 1.87875000e+01	Si
atom  1.27003000e-01 3.68857000e+01 1.72972000e+01	N
atom  7.84207000e-01 3.19423000e+01 2.05273000e+01	N
atom  1.31574000e+00 3.25399000e+01 2.21185000e+01	Si
atom  -1.72319000e-02 3.32518000e+01 2.29104000e+01	N
atom  1.60541000e+00 3.53161000e+01 2.30482000e+01	Si
atom  1.52458000e-01 3.73822000e+01 2.32121000e+01	Si
atom  1.13156000e+00 3.66234000e+01 2.19935000e+01	N
atom  1.14816000e+00 3.88555000e+01 2.34607000e+01	N
atom  5.12680000e-01 3.61051000e+01 2.43610000e+01	N
atom  4.79556000e-01 3.36271000e+01 2.57442000e+01	N
atom  -4.31901000e-01 3.51661000e+01 2.54423000e+01	Si
atom  3.99551000e-01 3.89304000e+01 2.92686000e+01	Si
atom  1.22648000e+00 3.78510000e+01 2.62741000e+01	N
atom  5.55021000e-01 3.98131000e+01 2.47757000e+01	Si
atom  1.66923000e+00 4.03051000e+01 2.59880000e+01	N
atom  6.36863000e-01 3.41704000e+01 3.25617000e+01	Si
atom  1.28694000e+00 3.11101000e+01 3.24815000e+01	Si
atom  1.03054000e+00 3.36030000e+01 3.05237000e+01	N
atom  3.22104000e-02 3.49268000e+01 3.40728000e+01	N
atom  1.42658000e+00 3.26918000e+01 3.31393000e+01	N
atom  -3.48501000e-01 3.06255000e+01 3.22041000e+01	N
atom  1.44474000e+00 3.01914000e+01 3.39791000e+01	N
atom  -4.67655000e-01 3.02008000e+01 3.39331000e+01	Si
atom  3.33915000e-01 3.66332000e+01 3.33731000e+01	Si
atom  9.52287000e-01 3.58685000e+01 3.19001000e+01	N
atom  8.73673000e-01 3.82028000e+01 3.28257000e+01	N
atom  1.27751000e+00 3.94854000e+01 3.39781000e+01	Si
atom  8.38828000e-01 3.57800000e+01 3.01347000e+01	Si
atom  8.19272000e-01 3.75176000e+01 3.00972000e+01	N
atom  -2.28057000e-01 4.00936000e+01 3.04956000e+01	N
atom  1.88582000e+00 3.74497000e+01 3.15768000e+01	Si
atom  1.12392000e+00 3.45742000e+01 3.87314000e+01	Si
atom  -3.04783000e-01 3.15579000e+01 3.81029000e+01	N
atom  1.95104000e+00 3.02241000e+01 3.56034000e+01	Si
atom  8.81071000e-01 3.52945000e+01 3.57015000e+01	Si
atom  3.85902000e-01 3.96522000e+01 3.78976000e+01	N
atom  1.09493000e+00 3.69662000e+01 3.49722000e+01	N
atom  -2.85406000e-01 3.94378000e+01 3.49496000e+01	N
atom  1.67338000e+00 3.53484000e+01 3.73326000e+01	N
atom  2.86295000e+00 1.57477000e+00 1.20776000e+00	Si
atom  3.54892000e+00 1.02237000e+00 2.74036000e+00	N
atom  3.80692000e+00 3.63608000e+00 3.95268000e+00	N
atom  3.75752000e+00 1.93267000e+00 4.22713000e+00	Si
atom  2.38435000e+00 4.59462000e+00 4.46470000e+00	Si
atom  3.45255000e+00 4.95610000e+00 1.49544000e+00	N
atom  1.87610000e+00 8.24002000e+00 1.20726000e+00	N
atom  4.02712000e+00 6.32994000e+00 2.50655000e+00	Si
atom  3.09763000e+00 7.55157000e+00 3.28601000e+00	N
atom  3.53745000e+00 8.30046000e+00 5.88465000e-01	Si
atom  4.11073000e+00 9.92918000e+00 6.24560000e-01	N
atom  3.36500000e+00 1.33679000e+00 9.30355000e+00	N
atom  3.20648000e+00 3.40550000e+00 7.53009000e+00	N
atom  2.52007000e+00 1.29908000e+00 5.33480000e+00	N
atom  3.08586000e+00 3.07157000e+00 9.27724000e+00	Si
atom  2.10558000e+00 2.36577000e+00 6.63806000e+00	Si
atom  3.46657000e+00 5.15291000e+00 7.00160000e+00	Si
atom  2.05281000e+00 8.29763000e+00 9.79461000e+00	N
atom  2.31576000e+00 5.89324000e+00 8.08017000e+00	N
atom  3.37268000e+00 7.51910000e+00 4.97796000e+00	Si
atom  2.07864000e+00 8.52094000e+00 5.50696000e+00	N
atom  4.07469000e+00 9.74252000e+00 7.90549000e+00	N
atom  3.02104000e+00 5.96277000e+00 9.70731000e+00	Si
atom  3.06733000e+00 5.84978000e+00 5.40461000e+00	N
atom  3.10642000e+00 9.50095000e+00 9.29831000e+00	Si
atom  2.51809000e+00 2.37189000e+00 1.40839000e+01	N
atom  2.89715000e+00 6.69905000e-01 1.35064000e+01	Si
atom  3.94465000e+00 3.30686000e+00 1.41522000e+01	Si
atom  3.86680000e+00 4.38785000e+00 1.00091000e+01	N
atom  4.04366000e+00 6.07817000e-01 1.21132000e+01	N
atom  3.97922000e+00 4.35475000e+00 1.28160000e+01	N
atom  3.67624000e+00 7.18360000e+00 1.21758000e+01	N
atom  3.71256000e+00 5.93696000e+00 1.34003000e+01	Si
atom  2.19242000e+00 8.65827000e+00 1.41062000e+01	N
atom  2.01256000e+00 6.08783000e+00 1.36795000e+01	N
atom  1.99341000e+00 7.63833000e+00 1.27575000e+01	Si
atom  3.74526000e+00 4.51262000e+00 1.94678000e+01	Si
atom  3.87670000e+00 4.41984000e+00 1.54101000e+01	N
atom  2.95442000e+00 3.92951000e-01 1.64969000e+01	Si
atom  3.54627000e+00 1.06020000e+00 1.95510000e+01	N
atom  3.66524000e+00 9.58238000e+00 1.93227000e+01	Si
atom  2.34506000e+00 5.29573000e+00 1.87222000e+01	N
atom  2.42507000e+00 7.10493000e+00 1.82542000e+01	Si
atom  3.76871000e+00 7.78727000e+00 1.91388000e+01	N
atom  4.03427000e+00 9.88618000e+00 1.58033000e+01	N
atom  2.97499000e+00 7.13862000e+00 1.65951000e+01	N
atom  2.33131000e+00 1.02572000e+01 1.84036000e+01	N
atom  3.38485000e+00 8.31167000e+00 1.53441000e+01	Si
atom  3.16591000e+00 1.88504000e+00 2.10666000e+01	Si
atom  2.97477000e+00 3.54032000e+00 2.07938000e+01	N
atom  1.91708000e+00 1.09968000e+00 2.19706000e+01	N
atom  2.90135000e+00 5.74629000e+00 2.24089000e+01	N
atom  3.38506000e+00 9.63335000e+00 2.27494000e+01	Si
atom  2.47368000e+00 8.34135000e+00 2.35996000e+01	N
atom  2.72366000e+00 6.63071000e+00 2.39310000e+01	Si
atom  3.39463000e+00 9.99089000e+00 2.09657000e+01	N
atom  2.72095000e+00 3.33043000e+00 2.52921000e+01	N
atom  3.68934000e+00 3.19097000e+00 2.66751000e+01	Si
atom  3.16216000e+00 2.11712000e+00 2.79529000e+01	N
atom  3.94873000e+00 4.74586000e+00 2.73843000e+01	N
atom  3.41142000e+00 2.00703000e+00 2.96943000e+01	Si
atom  4.14566000e+00 6.21722000e+00 2.66020000e+01	Si
atom  3.06978000e+00 6.01216000e+00 2.96978000e+01	N
atom  3.59196000e+00 9.48118000e+00 2.59918000e+01	N
atom  2.36790000e+00 8.55041000e+00 2.66725000e+01	Si
atom  2.91584000e+00 7.17720000e+00 2.73622000e+01	N
atom  2.64455000e+00 2.29699000e+00 3.24882000e+01	Si
atom  2.25920000e+00 3.97716000e+00 3.28630000e+01	N
atom  2.11067000e+00 1.97498000e+00 3.07558000e+01	N
atom  3.35178000e+00 5.40066000e+00 3.30035000e+01	Si
atom  2.46298000e+00 8.85935000e+00 3.05997000e+01	N
atom  3.29283000e+00 7.31041000e+00 3.09332000e+01	Si
atom  3.77295000e+00 8.98129000e+00 3.41960000e+01	N
atom  2.40834000e+00 6.64034000e+00 3.23470000e+01	N
atom  2.10408000e+00 9.48514000e+00 3.41705000e+01	Si
atom  4.14944000e+00 6.10084000e+00 3.44169000e+01	N
atom  3.04538000e+00 1.02265000e+01 3.14625000e+01	Si
atom  3.33484000e+00 3.20731000e+00 3.70031000e+01	N
atom  3.83752000e+00 7.59051000e+00 3.51978000e+01	Si
atom  3.72795000e+00 7.46406000e+00 3.90023000e+01	N
atom  2.49275000e+00 7.61687000e+00 3.63632000e+01	N
atom  3.19453000e+00 9.85790000e+00 3.80581000e+01	N
atom  3.51854000e+00 8.32418000e+00 3.75322000e+01	Si
atom  2.78058000e+00 1.28050000e+01 1.09232000e+00	Si
atom  2.95024000e+00 1.45621000e+01 1.09424000e+00	N
atom  2.46747000e+00 1.40193000e+01 4.16812000e+00	N
atom  3.95717000e+00 1.22596000e+01 2.19479000e+00	N
atom  3.95801000e+00 1.34385000e+01 3.49460000e+00	Si
atom  3.99098000e+00 1.56580000e+01 1.82763000e+00	Si
atom  3.13108000e+00 1.68012000e+01 2.72160000e+00	N
atom  3.19360000e+00 1.79297000e+01 4.57180000e-01	N
atom  3.26858000e+00 1.91477000e+01 4.35817000e+00	N
atom  3.83736000e+00 1.75781000e+01 4.05709000e+00	Si
atom  1.98314000e+00 1.74211000e+01 1.54495000e+00	Si
atom  1.87348000e+00 1.98038000e+01 3.50260000e+00	Si
atom  3.24101000e+00 1.12243000e+01 7.53252000e+00	Si
atom  2.93400000e+00 1.10336000e+01 5.85046000e+00	N
atom  4.00733000e+00 1.48312000e+01 6.36617000e+00	N
atom  2.24389000e+00 1.09969000e+01 8.98359000e+00	N
atom  2.62471000e+00 1.53016000e+01 5.40722000e+00	Si
atom  2.05975000e+00 1.85064000e+01 5.91072000e+00	Si
atom  2.93113000e+00 1.98122000e+01 6.81935000e+00	N
atom  3.04056000e+00 1.69760000e+01 5.60586000e+00	N
atom  3.24338000e+00 1.68595000e+01 8.51759000e+00	N
atom  4.10870000e+00 1.64686000e+01 7.01104000e+00	Si
atom  3.81064000e+00 1.59518000e+01 9.83432000e+00	Si
atom  4.17764000e+00 2.01323000e+01 5.58601000e+00	Si
atom  3.16285000e+00 1.35964000e+01 1.12926000e+01	Si
atom  3.53599000e+00 1.09558000e+01 1.28113000e+01	N
atom  3.68852000e+00 1.34082000e+01 1.42829000e+01	Si
atom  3.90155000e+00 1.41728000e+01 1.27121000e+01	N
atom  2.59029000e+00 1.48243000e+01 1.02566000e+01	N
atom  1.98679000e+00 1.28758000e+01 1.41934000e+01	N
atom  1.93988000e+00 1.17138000e+01 1.29483000e+01	Si
atom  3.37054000e+00 1.65666000e+01 1.39794000e+01	N
atom  2.82669000e+00 1.22753000e+01 1.65738000e+01	N
atom  3.82409000e+00 1.36311000e+01 1.71121000e+01	Si
atom  2.73661000e+00 1.42571000e+01 1.82937000e+01	N
atom  2.63281000e+00 1.05822000e+01 1.67376000e+01	Si
atom  4.14408000e+00 1.45235000e+01 1.55573000e+01	N
atom  4.20325000e+00 1.82986000e+01 1.57691000e+01	N
atom  2.95014000e+00 1.66932000e+01 1.70169000e+01	N
atom  2.66999000e+00 1.83023000e+01 1.66027000e+01	Si
atom  4.07603000e+00 1.64931000e+01 1.56481000e+01	Si
atom  2.51589000e+00 1.97635000e+01 1.74752000e+01	N
atom  3.28865000e+00 1.38755000e+01 2.34244000e+01	N
atom  2.25101000e+00 1.10045000e+01 2.30240000e+01	N
atom  2.63112000e+00 1.36195000e+01 1.98763000e+01	Si
atom  4.08799000e+00 1.27397000e+01 2.00791000e+01	N
atom  2.60250000e+00 1.51213000e+01 2.23408000e+01	Si
atom  1.93452000e+00 1.49520000e+01 2.07996000e+01	N
atom  2.39682000e+00 1.75523000e+01 2.02208000e+01	N
atom  3.58625000e+00 1.65077000e+01 2.25148000e+01	N
atom  3.58300000e+00 1.78371000e+01 2.13433000e+01	Si
atom  3.53354000e+00 1.94054000e+01 2.20470000e+01	N
atom  3.68304000e+00 1.84403000e+01 2.45788000e+01	N
atom  4.25176000e+00 1.69601000e+01 2.40991000e+01	Si
atom  2.28552000e+00 1.45898000e+01 2.47995000e+01	Si
atom  2.67666000e+00 1.10851000e+01 2.84953000e+01	Si
atom  3.11106000e+00 1.49346000e+01 2.82398000e+01	Si
atom  2.70465000e+00 1.43178000e+01 2.97304000e+01	N
atom  4.21229000e+00 1.14545000e+01 2.76656000e+01	N
atom  3.01279000e+00 1.91284000e+01 2.72584000e+01	N
atom  3.60175000e+00 1.57795000e+01 2.52151000e+01	N
atom  2.35949000e+00 1.85650000e+01 2.56589000e+01	Si
atom  2.93747000e+00 1.66029000e+01 2.82165000e+01	N
atom  3.67075000e+00 1.80724000e+01 2.84881000e+01	Si
atom  3.10594000e+00 1.44436000e+01 3.42694000e+01	N
atom  3.24837000e+00 1.30222000e+01 3.08890000e+01	Si
atom  2.87147000e+00 1.14530000e+01 3.02073000e+01	N
atom  3.95994000e+00 1.19352000e+01 3.43428000e+01	N
atom  1.99157000e+00 1.06191000e+01 3.27999000e+01	N
atom  4.26406000e+00 1.34129000e+01 3.35975000e+01	Si
atom  2.43092000e+00 1.87463000e+01 3.39537000e+01	Si
atom  3.17281000e+00 1.84675000e+01 3.01212000e+01	N
atom  2.28494000e+00 1.70223000e+01 3.41691000e+01	N
atom  3.71363000e+00 1.60587000e+01 3.46267000e+01	Si
atom  4.06660000e+00 1.93146000e+01 3.38581000e+01	N
atom  3.93547000e+00 1.09721000e+01 3.91954000e+01	Si
atom  2.17801000e+00 1.31888000e+01 3.80691000e+01	Si
atom  2.71777000e+00 1.20641000e+01 3.55862000e+01	Si
atom  3.63121000e+00 1.28938000e+01 3.68873000e+01	N
atom  2.76329000e+00 1.21695000e+01 3.94747000e+01	N
atom  2.65435000e+00 1.49774000e+01 3.84051000e+01	N
atom  2.20144000e+00 1.03709000e+01 3.56999000e+01	N
atom  2.01253000e+00 1.75070000e+01 3.72380000e+01	N
atom  1.97180000e+00 1.99621000e+01 3.84402000e+01	N
atom  4.13601000e+00 1.93344000e+01 3.66329000e+01	N
atom  4.08267000e+00 1.61245000e+01 3.62790000e+01	N
atom  1.99212000e+00 1.96892000e+01 3.53590000e+01	N
atom  2.89819000e+00 1.95478000e+01 3.98530000e+01	Si
atom  2.43235000e+00 1.59157000e+01 3.69658000e+01	Si
atom  2.33370000e+00 1.91286000e+01 3.69430000e+01	Si
atom  2.94761000e+00 2.35734000e+01 1.76724000e+00	N
atom  2.52484000e+00 2.48022000e+01 2.99433000e+00	Si
atom  2.91043000e+00 2.09202000e+01 9.85038000e-01	N
atom  2.96940000e+00 2.40549000e+01 4.48654000e+00	N
atom  3.99545000e+00 2.40547000e+01 4.19339000e-01	Si
atom  2.05351000e+00 2.20802000e+01 1.88692000e+00	Si
atom  1.96811000e+00 2.15414000e+01 3.55108000e+00	N
atom  2.50306000e+00 2.25224000e+01 4.95369000e+00	Si
atom  2.62527000e+00 2.80299000e+01 2.93493000e+00	Si
atom  3.13057000e+00 2.63412000e+01 2.57879000e+00	N
atom  2.75277000e+00 2.82889000e+01 1.06323000e+00	N
atom  3.66497000e+00 2.68752000e+01 9.21269000e-01	Si
atom  3.19776000e+00 2.55469000e+01 -7.45947000e-02	N
atom  2.61540000e+00 2.22051000e+01 8.96764000e+00	N
atom  2.44873000e+00 2.50500000e+01 9.35851000e+00	N
atom  4.04108000e+00 2.45275000e+01 7.05467000e+00	N
atom  2.11253000e+00 2.11953000e+01 7.59646000e+00	Si
atom  2.40482000e+00 2.83311000e+01 4.78077000e+00	N
atom  2.60809000e+00 2.53918000e+01 7.62244000e+00	Si
atom  2.86997000e+00 2.96741000e+01 8.28534000e+00	N
atom  2.65498000e+00 2.70853000e+01 7.23518000e+00	N
atom  3.58458000e+00 2.76670000e+01 5.83939000e+00	Si
atom  3.32456000e+00 2.17668000e+01 1.20409000e+01	Si
atom  3.28417000e+00 2.17294000e+01 1.37911000e+01	N
atom  2.89255000e+00 2.34401000e+01 1.16013000e+01	N
atom  2.23839000e+00 2.45465000e+01 1.27042000e+01	Si
atom  2.11630000e+00 2.07946000e+01 1.12656000e+01	N
atom  3.18487000e+00 2.35887000e+01 9.91140000e+00	Si
atom  2.11153000e+00 2.24077000e+01 1.49388000e+01	Si
atom  3.30389000e+00 2.58363000e+01 1.31085000e+01	N
atom  3.26507000e+00 2.91507000e+01 1.02298000e+01	Si
atom  3.73770000e+00 2.81879000e+01 1.17267000e+01	N
atom  3.98440000e+00 2.73558000e+01 1.31824000e+01	Si
atom  2.79432000e+00 2.28240000e+01 1.64734000e+01	N
atom  2.18519000e+00 2.40476000e+01 1.75163000e+01	Si
atom  2.94976000e+00 2.49081000e+01 1.97127000e+01	Si
atom  3.50990000e+00 2.03952000e+01 1.87190000e+01	Si
atom  3.50123000e+00 2.52078000e+01 1.80079000e+01	N
atom  1.92999000e+00 2.37048000e+01 1.91981000e+01	N
atom  2.56616000e+00 2.86414000e+01 1.56248000e+01	Si
atom  3.92563000e+00 2.81134000e+01 1.46455000e+01	N
atom  2.27075000e+00 2.78165000e+01 1.71671000e+01	N
atom  2.34189000e+00 2.79549000e+01 1.89172000e+01	Si
atom  3.89776000e+00 2.80761000e+01 1.96569000e+01	N
atom  2.83698000e+00 2.47192000e+01 2.42238000e+01	Si
atom  2.60242000e+00 2.07990000e+01 2.16630000e+01	Si
atom  2.79426000e+00 2.10810000e+01 2.37748000e+01	N
atom  3.63316000e+00 2.21476000e+01 2.15097000e+01	N
atom  2.25563000e+00 2.08556000e+01 1.99023000e+01	N
atom  4.23988000e+00 2.53330000e+01 2.34234000e+01	N
atom  2.63815000e+00 2.58734000e+01 2.11938000e+01	N
atom  3.23817000e+00 2.88971000e+01 2.26940000e+01	N
atom  3.78071000e+00 2.34902000e+01 2.48783000e+01	N
atom  3.37988000e+00 2.18872000e+01 2.52362000e+01	Si