lattice_vector  3.98651534e+01 0.00000000e+00 0.00000000e+00
lattice_vector  2.44103662e-15 3.98651534e+01 0.00000000e+00
lattice_vector  2.44103662e-15 2.44103662e-15 3.98651534e+01
atom  9.73995000e-01 4.26520000e+00 2.10334000e+00	N
atom  8.49105000e-01 1.67994000e+00 3.40566000e+00	N
atom  4.57606000e-01 2.62375000e+00 2.04071000e+00	Si
atom  6.56723000e-01 2.02786000e+00 3.12482000e-01	N
atom  -1.10075000e-01 9.12360000e-01 4.73815000e+00	Si
atom  2.22739000e-01 5.45752000e+00 9.21020000e-01	Si
atom  5.17649000e-01 7.21759000e+00 1.25460000e+00	N
atom  8.21470000e-01 7.76572000e+00 4.20707000e+00	N
atom  1.34747000e+00 9.44693000e+00 4.04448000e+00	Si
atom  -6.25297000e-02 1.00225000e+01 1.74514000e-01	N
atom  -2.06925000e-01 8.32925000e+00 6.09704000e-02	Si
atom  -2.12901000e-01 7.45924000e+00 2.83488000e+00	Si
atom  1.11912000e+00 3.25776000e+00 7.14630000e+00	N
atom  9.84529000e-01 1.51977000e+00 7.37515000e+00	Si
atom  1.43857000e-02 4.54240000e+00 6.84773000e+00	Si
atom  1.10941000e+00 4.53434000e-01 5.99003000e+00	N
atom  -3.38248000e-01 8.85792000e-01 8.24973000e+00	N
atom  9.95098000e-02 5.19389000e+00 5.28519000e+00	N
atom  1.47695000e+00 6.25356000e+00 4.89980000e+00	Si
atom  -3.33220000e-01 5.70729000e+00 9.70128000e+00	Si
atom  -9.89449000e-02 8.64452000e+00 7.84111000e+00	N
atom  7.52653000e-01 9.80989000e+00 6.86151000e+00	Si
atom  2.54738000e-01 5.85171000e+00 8.08619000e+00	N
atom  1.20129000e+00 7.35146000e+00 7.75136000e+00	Si
atom  1.34216000e-01 3.82992000e+00 1.28968000e+01	N
atom  1.47513000e+00 3.93307000e+00 1.16977000e+01	Si
atom  4.87882000e-01 4.53739000e+00 1.44514000e+01	Si
atom  7.81649000e-01 4.21752000e-01 1.40953000e+01	Si
atom  1.70020000e+00 2.24819000e+00 1.10946000e+01	N
atom  1.04538000e+00 5.19292000e+00 1.05654000e+01	N
atom  1.44494000e-01 8.19635000e+00 1.40587000e+01	N
atom  -7.32035000e-03 9.73296000e+00 1.18811000e+01	N
atom  1.69939000e+00 5.73347000e+00 1.42410000e+01	N
atom  1.68296000e+00 7.47553000e+00 1.37310000e+01	Si
atom  1.65764000e+00 9.28948000e+00 1.15921000e+01	Si
atom  7.97640000e-01 3.24901000e+00 1.55655000e+01	N
atom  2.86033000e-01 1.90071000e+00 1.79907000e+01	N
atom  -3.24167000e-02 6.03242000e-01 1.56024000e+01	N
atom  1.65111000e+00 8.44275000e-01 1.77596000e+01	Si
atom  -3.79517000e-01 2.16683000e+00 1.63351000e+01	Si
atom  4.17821000e-01 5.15709000e+00 1.89882000e+01	Si
atom  1.84422000e+00 4.20027000e+00 1.93894000e+01	N
atom  8.70359000e-03 8.64794000e+00 1.57713000e+01	Si
atom  1.04731000e+00 1.00183000e+01 1.92206000e+01	Si
atom  3.16561000e-01 5.79988000e+00 1.72761000e+01	N
atom  1.49888000e+00 8.04506000e+00 1.62984000e+01	N
atom  1.85365000e+00 6.43528000e+00 1.69578000e+01	Si
atom  5.51967000e-02 1.03447000e+01 1.62518000e+01	N
atom  7.01566000e-01 4.48735000e+00 2.32873000e+01	N
atom  4.16927000e-01 2.39258000e+00 2.07956000e+01	N
atom  1.06699000e+00 2.96623000e+00 2.24766000e+01	Si
atom  3.67174000e-01 1.56745000e+00 2.32311000e+01	N
atom  4.40761000e-01 7.41947000e-01 2.15874000e+01	Si
atom  1.72133000e+00 4.62271000e+00 2.46903000e+01	Si
atom  1.03837000e+00 7.55118000e+00 2.44334000e+01	Si
atom  1.53967000e+00 8.88242000e+00 2.04683000e+01	N
atom  1.67012000e+00 7.20073000e+00 2.01377000e+01	Si
atom  1.51275000e+00 9.42604000e+00 2.21460000e+01	Si
atom  9.55378000e-02 6.38333000e+00 2.02396000e+01	N
atom  -6.31843000e-02 9.88171000e+00 2.26236000e+01	N
atom  -1.18364000e-01 8.56453000e-01 2.59039000e+01	N
atom  5.47336000e-01 1.50714000e+00 2.81963000e+01	N
atom  8.59743000e-01 2.03373000e+00 2.65965000e+01	Si
atom  8.77904000e-01 3.69408000e+00 2.59974000e+01	N
atom  1.64551000e+00 1.53905000e+00 2.95223000e+01	Si
atom  -4.68091000e-01 2.66383000e+00 2.91487000e+01	Si
atom  1.57104000e+00 6.24506000e+00 2.53894000e+01	N
atom  -1.26169000e-01 5.99439000e+00 2.73895000e+01	N
atom  1.69786000e+00 6.19777000e+00 2.72162000e+01	Si
atom  7.19187000e-01 8.87799000e+00 2.54903000e+01	N
atom  8.14647000e-01 4.41527000e+00 3.27408000e+01	N
atom  6.84879000e-01 2.62950000e+00 3.04976000e+01	N
atom  1.26402000e+00 1.80481000e+00 3.31484000e+01	N
atom  3.41033000e-01 2.89550000e+00 3.21806000e+01	Si
atom  1.45522000e+00 4.00519000e+00 3.42645000e+01	Si
atom  5.65628000e-01 1.51947000e+00 3.47040000e+01	Si
atom  5.49614000e-01 7.27664000e+00 3.37647000e+01	N
atom  2.26831000e-01 6.57006000e+00 3.10685000e+01	N
atom  1.14697000e+00 6.08296000e+00 3.25866000e+01	Si
atom  1.42509000e+00 1.00907000e+01 3.23931000e+01	N
atom  1.58438000e+00 1.02018000e+01 3.06785000e+01	Si
atom  1.81879000e+00 7.04201000e+00 3.04595000e+01	Si
atom  2.09013000e+00 8.64919000e+00 3.00408000e+01	N
atom  9.24711000e-01 2.96113000e+00 3.87815000e+01	Si
atom  2.70007000e-01 3.12847000e+00 3.52388000e+01	N
atom  1.07336000e+00 4.64842000e+00 3.93110000e+01	N
atom  1.69677000e+00 6.65315000e-01 3.56882000e+01	N
atom  1.68229000e-01 7.47020000e+00 3.84664000e+01	N
atom  1.55904000e+00 8.20567000e+00 3.61452000e+01	N
atom  9.74893000e-01 9.83150000e+00 3.58405000e+01	Si
atom  1.76122000e+00 7.91273000e+00 3.78793000e+01	Si
atom  -4.13840000e-01 9.96362000e+00 3.48186000e+01	N
atom  1.10304000e+00 1.32492000e+01 3.99420000e+00	N
atom  4.05738000e-01 1.35875000e+01 1.46291000e+00	N
atom  4.61114000e-03 1.19452000e+01 4.28706000e+00	Si
atom  1.75475000e+00 1.40192000e+01 2.50214000e+00	Si
atom  1.35059000e+00 1.05988000e+01 2.67257000e+00	N
atom  2.00783000e+00 1.17373000e+01 1.27183000e-01	N
atom  -2.03011000e-01 1.04244000e+01 1.87609000e+00	Si
atom  8.65441000e-01 1.29972000e+01 -1.39884000e-01	Si
atom  9.41450000e-01 1.67482000e+01 1.66706000e+00	Si
atom  1.15278000e+00 1.85337000e+01 1.86405000e+00	N
atom  5.60880000e-01 1.66938000e+01 -1.63505000e-02	N
atom  -4.85686000e-01 1.85941000e+01 2.52378000e+00	Si
atom  -4.38816000e-01 1.96894000e+01 3.84354000e+00	N
atom  5.57237000e-01 1.03865000e+01 5.23095000e+00	N
atom  -6.67144000e-02 1.26933000e+01 7.23595000e+00	Si
atom  1.45227000e+00 1.34732000e+01 6.81726000e+00	N
atom  1.48113000e+00 1.43406000e+01 5.32970000e+00	Si
atom  6.62302000e-01 1.12582000e+01 7.84980000e+00	N
atom  1.71089000e+00 1.12130000e+01 9.25825000e+00	Si
atom  1.57717000e+00 1.71774000e+01 9.86057000e+00	N
atom  2.74683000e-01 1.67043000e+01 6.52340000e+00	Si
atom  4.10564000e-01 1.95993000e+01 8.40118000e+00	N
atom  2.85356000e-01 1.95377000e+01 5.50660000e+00	Si
atom  1.56541000e+00 1.82729000e+01 8.53369000e+00	Si
atom  -3.41307000e-01 1.59501000e+01 7.94783000e+00	N
atom  1.13629000e+00 1.57104000e+01 8.96895000e+00	Si
atom  2.66297000e-01 1.55993000e+01 5.15988000e+00	N
atom  1.84148000e+00 1.70216000e+01 7.24667000e+00	N
atom  9.65334000e-01 1.19573000e+01 1.06249000e+01	N
atom  1.09665000e+00 1.36053000e+01 1.26381000e+01	N
atom  1.36461000e-01 1.38628000e+01 1.40716000e+01	Si
atom  9.76890000e-01 1.50141000e+01 1.17030000e+01	Si
atom  1.54146000e-02 1.49364000e+01 1.02194000e+01	N
atom  1.83372000e-01 1.22432000e+01 1.47413000e+01	N
atom  4.52096000e-01 1.90780000e+01 1.32435000e+01	N
atom  1.30880000e-01 1.61913000e+01 1.27469000e+01	N
atom  2.04306000e+00 1.26317000e+01 1.69017000e+01	N
atom  7.56688000e-01 1.38631000e+01 1.67866000e+01	Si
atom  9.56112000e-01 1.47590000e+01 1.53474000e+01	N
atom  1.22032000e+00 1.15381000e+01 1.58572000e+01	Si
atom  1.21296000e+00 1.17663000e+01 1.96799000e+01	N
atom  8.74385000e-01 1.51748000e+01 1.79310000e+01	N
atom  1.38293000e+00 1.64083000e+01 1.56765000e+01	Si
atom  7.38719000e-02 1.82472000e+01 1.93508000e+01	Si
atom  -1.78098000e-01 1.72732000e+01 1.54449000e+01	N
atom  1.65456000e+00 1.77024000e+01 1.88505000e+01	N
atom  3.18289000e-01 1.99282000e+01 1.89983000e+01	N
atom  1.20364000e+00 1.46372000e+01 2.43267000e+01	N
atom  1.54876000e+00 1.21999000e+01 2.13731000e+01	Si
atom  1.61072000e+00 1.50029000e+01 2.26658000e+01	Si
atom  -1.26749000e-01 1.24657000e+01 2.18560000e+01	N
atom  1.33038000e-01 1.51090000e+01 2.17763000e+01	N
atom  1.14629000e+00 1.77666000e+01 2.43694000e+01	Si
atom  1.36216000e+00 1.69621000e+01 2.27961000e+01	N
atom  1.40603000e+00 1.93146000e+01 2.38236000e+01	N
atom  -1.80921000e-01 1.67619000e+01 2.20098000e+01	Si
atom  4.55962000e-01 1.12007000e+01 2.83253000e+01	Si
atom  5.81637000e-01 1.43809000e+01 2.81278000e+01	Si
atom  1.04736000e+00 1.28131000e+01 2.86955000e+01	N
atom  -2.57508000e-01 1.38105000e+01 2.67149000e+01	N
atom  -2.05232000e-01 1.40811000e+01 2.49552000e+01	Si
atom  1.87729000e+00 1.03357000e+01 2.78302000e+01	N
atom  1.88665000e+00 1.55173000e+01 2.81187000e+01	N
atom  -1.71733000e-01 1.74094000e+01 2.75347000e+01	N
atom  1.52635000e+00 1.70879000e+01 2.74874000e+01	Si
atom  5.39427000e-01 1.99406000e+01 2.66881000e+01	N
atom  1.44166000e-01 1.08336000e+01 3.34550000e+01	Si
atom  7.40909000e-01 1.26084000e+01 3.34755000e+01	N
atom  -1.24137000e-01 1.40525000e+01 3.29695000e+01	Si
atom  9.37379000e-02 1.07557000e+01 2.99406000e+01	N
atom  8.10759000e-01 1.53413000e+01 3.21793000e+01	N
atom  4.03602000e-02 1.96916000e+01 3.20373000e+01	Si
atom  7.89484000e-01 1.82461000e+01 3.15222000e+01	N
atom  3.30669000e-02 1.68651000e+01 3.21960000e+01	Si
atom  2.79511000e-01 1.99655000e+01 3.37152000e+01	N
atom  1.28772000e+00 1.33682000e+01 3.59691000e+01	N
atom  -1.14909000e-01 1.43868000e+01 3.60264000e+01	Si
atom  1.67665000e+00 1.42185000e+01 3.88287000e+01	N
atom  7.66294000e-01 1.05358000e+01 3.74176000e+01	N
atom  -4.37764000e-01 1.83507000e+01 3.61184000e+01	N
atom  2.82215000e-01 1.57714000e+01 3.70319000e+01	N
atom  6.58749000e-01 1.94521000e+01 3.67850000e+01	Si
atom  1.27023000e+00 1.58834000e+01 3.84846000e+01	Si
atom  7.53401000e-01 1.93564000e+01 3.85876000e+01	N
atom  -2.80208000e-01 1.81673000e+01 3.94664000e+01	Si
atom  4.10874000e-01 2.31262000e+01 2.17570000e+00	N
atom  8.49400000e-01 2.21540000e+01 4.61032000e+00	N
atom  -2.02465000e-01 2.47060000e+01 4.27955000e+00	N
atom  1.76535000e+00 2.20188000e+01 -1.12302000e-02	N
atom  -2.49275000e-01 2.43179000e+01 1.16759000e+00	Si
atom  -2.97912000e-01 2.30413000e+01 3.69950000e+00	Si
atom  1.94416000e+00 2.23553000e+01 1.69187000e+00	Si
atom  8.34867000e-01 2.48811000e+01 -9.15863000e-02	N
atom  1.43187000e+00 2.65448000e+01 1.18568000e-01	Si
atom  5.81851000e-01 2.73566000e+01 4.01087000e+00	N
atom  1.14886000e-01 2.75980000e+01 8.30514000e-03	N
atom  1.92805000e+00 2.94133000e+01 2.52926000e+00	N
atom  1.79715000e+00 2.20661000e+01 7.23405000e+00	N
atom  4.66695000e-01 2.48472000e+01 5.87840000e+00	Si
atom  3.40565000e-01 2.21888000e+01 6.27475000e+00	Si
atom  -7.95711000e-02 2.48999000e+01 9.18176000e+00	N
atom  1.72369000e+00 2.08391000e+01 8.44977000e+00	Si
atom  -4.09946000e-01 2.36074000e+01 6.68296000e+00	N
atom  4.30843000e-01 2.78183000e+01 5.67891000e+00	Si
atom  -1.74454000e-01 2.89552000e+01 9.75240000e+00	Si
atom  8.26147000e-01 2.64578000e+01 9.15247000e+00	Si
atom  1.36313000e+00 2.84039000e+01 9.41307000e+00	N
atom  1.18209000e-01 2.63530000e+01 6.65495000e+00	N
atom  1.85728000e+00 2.85610000e+01 6.34812000e+00	N
atom  2.85380000e-01 2.20137000e+01 1.05707000e+01	Si
atom  1.25799000e-01 2.17942000e+01 1.38342000e+01	N
atom  5.64250000e-01 2.47997000e+01 1.38265000e+01	N
atom  -3.98613000e-03 2.49836000e+01 1.09276000e+01	Si
atom  -8.98123000e-02 2.34090000e+01 1.15563000e+01	N
atom  -3.53076000e-01 2.34261000e+01 1.33002000e+01	Si
atom  1.88329000e+00 2.16446000e+01 1.00332000e+01	N
atom  7.35476000e-01 2.64986000e+01 1.42164000e+01	Si
atom  1.34650000e+00 2.60323000e+01 1.08963000e+01	N
atom  1.60678000e+00 2.75408000e+01 1.31954000e+01	N
atom  1.79010000e+00 2.92244000e+01 1.34418000e+01	Si
atom  5.06831000e-01 3.01707000e+01 1.28397000e+01	N
atom  1.79495000e+00 2.50449000e+01 1.83289000e+01	N
atom  1.45954000e+00 2.15148000e+01 1.49239000e+01	Si
atom  1.52824000e+00 2.26576000e+01 1.74941000e+01	Si
atom  1.80731000e-01 2.36328000e+01 1.68107000e+01	N
atom  1.03115000e+00 2.12283000e+01 1.65928000e+01	N
atom  1.08749000e+00 2.25881000e+01 1.92181000e+01	N
atom  7.60159000e-01 2.42661000e+01 1.95668000e+01	Si
atom  -3.73149000e-01 2.06652000e+01 1.76055000e+01	Si
atom  9.12352000e-01 2.52759000e+01 1.67872000e+01	Si
atom  1.89645000e+00 2.60375000e+01 1.55449000e+01	N
atom  3.85127000e-01 3.02263000e+01 1.61108000e+01	Si
atom  1.63055000e-01 2.81041000e+01 1.93669000e+01	N
atom  1.69200000e-01 2.79772000e+01 1.76237000e+01	Si
atom  1.73590000e+00 2.98097000e+01 1.50870000e+01	N
atom  1.89831000e+00 2.81484000e+01 1.73548000e+01	N
atom  -3.36273000e-01 2.63155000e+01 1.72510000e+01	N
atom  9.99584000e-01 2.10495000e+01 2.16386000e+01	N
atom  4.19948000e-01 2.21238000e+01 2.29095000e+01	Si
atom  1.21578000e+00 2.48704000e+01 2.11116000e+01	N
atom  1.72454000e+00 2.32123000e+01 2.35209000e+01	N
atom  1.25295000e+00 2.10012000e+01 1.99088000e+01	Si
atom  1.83038000e+00 2.49395000e+01 2.40745000e+01	Si
atom  2.97392000e-01 2.60961000e+01 2.21111000e+01	Si
atom  3.68477000e-01 2.58115000e+01 2.38713000e+01	N
atom  7.97396000e-01 2.76962000e+01 2.18549000e+01	N
atom  1.55850000e+00 2.82233000e+01 2.04127000e+01	Si
atom  1.60242000e+00 3.01394000e+01 2.31461000e+01	N
atom  1.04552000e-02 2.14957000e+01 2.60266000e+01	Si
atom  3.42278000e-01 2.34970000e+01 2.89946000e+01	N
atom  1.29961000e+00 2.26235000e+01 2.64044000e+01	N
atom  1.62025000e+00 2.27162000e+01 2.81600000e+01	Si
atom  1.90882000e+00 2.88294000e+01 2.63333000e+01	N
atom  8.00845000e-01 2.69322000e+01 2.83911000e+01	N
atom  -3.69534000e-02 2.95830000e+01 2.76612000e+01	N
atom  5.56641000e-01 2.79857000e+01 2.70186000e+01	Si
atom  5.96650000e-01 2.12004000e+01 3.13160000e+01	N
atom  9.42626000e-01 2.25912000e+01 3.37007000e+01	N
atom  4.86010000e-01 2.40309000e+01 3.15694000e+01	N
atom  5.59365000e-02 2.25376000e+01 3.22736000e+01	Si
atom  2.86016000e-01 2.49382000e+01 3.00946000e+01	Si
atom  7.42362000e-01 2.12593000e+01 3.48355000e+01	Si
atom  1.16503000e+00 2.77994000e+01 3.09287000e+01	N
atom  1.22383000e+00 2.86720000e+01 3.37992000e+01	N
atom  1.74497000e+00 2.88952000e+01 3.21578000e+01	Si
atom  -3.81786000e-01 2.81225000e+01 3.39708000e+01	Si
atom  1.28714000e+00 2.32274000e+01 3.68193000e+01	Si
atom  1.54967000e+00 2.45241000e+01 3.56729000e+01	N
atom  -1.39706000e-01 2.09333000e+01 3.63366000e+01	N
atom  -2.17155000e-01 2.32692000e+01 3.75527000e+01	N
atom  1.98201000e+00 2.04581000e+01 3.91306000e+01	Si
atom  1.36954000e+00 3.01414000e+01 3.63005000e+01	N
atom  -1.45587000e-01 2.58978000e+01 3.74696000e+01	N
atom  8.65455000e-01 2.61069000e+01 3.59333000e+01	Si
atom  1.98505000e+00 2.73765000e+01 3.60468000e+01	N
atom  7.51073000e-01 3.34513000e+01 1.66735000e+00	Si
atom  1.27919000e+00 3.15383000e+01 1.55846000e+00	N
atom  1.11970000e+00 3.08422000e+01 3.21202000e+00	Si
atom  1.33524000e+00 3.33909000e+01 3.23497000e+00	N
atom  1.63600000e+00 3.34874000e+01 7.09021000e-02	N
atom  2.97433000e-01 3.52007000e+01 1.53834000e+00	N
atom  1.89910000e+00 3.12218000e+01 4.71682000e+00	N
atom  -2.55191000e-01 3.97713000e+01 1.09749000e+00	N
atom  3.41827000e-01 3.60751000e+01 4.46826000e+00	N
atom  1.96201000e-01 3.63598000e+01 2.78407000e+00	Si
atom  1.71875000e+00 3.72216000e+01 2.30648000e+00	N
atom  1.47111000e+00 4.01280000e+01 4.13623000e-01	Si
atom  1.93803000e+00 3.70516000e+01 5.63385000e-01	Si
atom  6.96640000e-01 3.14654000e+01 8.64109000e+00	Si
atom  8.98495000e-02 3.26477000e+01 7.50978000e+00	N
atom  1.22173000e+00 3.38710000e+01 7.04320000e+00	Si
atom  1.80656000e+00 3.60673000e+01 5.51505000e+00	Si
atom  3.21405000e-01 3.53691000e+01 7.08367000e+00	N
atom  1.65575000e+00 3.75728000e+01 6.46152000e+00	N
atom  -3.39044000e-01 3.93240000e+01 9.30140000e+00	Si
atom  7.60320000e-01 3.69152000e+01 7.82268000e+00	Si
atom  1.82839000e+00 3.66061000e+01 9.09198000e+00	N
atom  3.02006000e-01 3.18900000e+01 1.22761000e+01	Si
atom  -4.03373000e-02 3.32388000e+01 1.34950000e+01	N
atom  -1.50954000e-01 3.49081000e+01 1.29383000e+01	Si
atom  8.64275000e-01 3.19807000e+01 1.02747000e+01	N
atom  1.11029000e+00 3.58737000e+01 1.36150000e+01	N
atom  3.82052000e-01 3.74544000e+01 1.39695000e+01	Si
atom  1.50108000e+00 3.87754000e+01 1.36798000e+01	N
atom  1.18968000e+00 3.93270000e+01 1.00607000e+01	N
atom  -1.72777000e-01 3.06547000e+01 1.93812000e+01	Si
atom  -6.70843000e-02 3.45896000e+01 1.60149000e+01	N
atom  1.68904000e+00 3.45034000e+01 1.62877000e+01	Si
atom  5.47311000e-01 3.22585000e+01 1.76168000e+01	Si
atom  3.36242000e-01 3.50010000e+01 1.93168000e+01	N
atom  8.90243000e-01 3.05041000e+01 1.79309000e+01	N
atom  1.81270000e+00 3.33628000e+01 1.75501000e+01	N
atom  -2.01828000e-01 3.18363000e+01 1.61081000e+01	N
atom  1.91517000e+00 3.48771000e+01 1.86588000e+01	Si
atom  -3.90517000e-02 3.68095000e+01 1.95650000e+01	Si
atom  -9.09995000e-02 3.75045000e+01 1.56176000e+01	N
atom  1.04449000e+00 3.91453000e+01 1.75384000e+01	N
atom  1.59353000e+00 3.73805000e+01 1.94610000e+01	N
atom  1.87555000e+00 3.76595000e+01 1.78483000e+01	Si
atom  4.24589000e-01 3.33457000e+01 2.22459000e+01	Si
atom  1.04681000e+00 3.47155000e+01 2.32221000e+01	N
atom  2.96474000e-01 3.07340000e+01 2.41253000e+01	Si
atom  1.71212000e+00 3.26441000e+01 2.12549000e+01	N
atom  1.76120000e+00 3.09290000e+01 2.15314000e+01	Si
atom  1.75828000e-01 3.03442000e+01 2.10172000e+01	N
atom  -3.03597000e-01 3.20550000e+01 2.32072000e+01	N
atom  -2.99965000e-02 3.52819000e+01 2.46286000e+01	Si
atom  2.66752000e-02 3.88505000e+01 2.35229000e+01	N
atom  1.75197000e+00 3.94531000e+01 2.16353000e+01	N
atom  1.36817000e+00 3.67679000e+01 2.46229000e+01	N
atom  1.69250000e+00 3.84083000e+01 2.32076000e+01	Si
atom  7.51702000e-01 3.35177000e+01 2.77693000e+01	N
atom  8.06267000e-01 3.30229000e+01 2.59628000e+01	Si
atom  9.00161000e-01 3.13347000e+01 2.56326000e+01	N
atom  1.37647000e+00 3.03673000e+01 2.69327000e+01	Si
atom  -3.41588000e-01 3.84101000e+01 2.73061000e+01	N
atom  -3.10999000e-01 3.59810000e+01 2.62991000e+01	N
atom  1.05465000e+00 3.71355000e+01 2.64059000e+01	Si
atom  1.08073000e+00 3.31697000e+01 3.24618000e+01	N
atom  1.08446000e+00 3.46219000e+01 3.15577000e+01	Si
atom  -3.94098000e-02 3.45300000e+01 3.02033000e+01	N
atom  1.35648000e+00 3.04892000e+01 3.15746000e+01	N
atom  -3.35518000e-01 3.27674000e+01 3.33648000e+01	Si
atom  3.67503000e-01 3.89025000e+01 3.03117000e+01	Si
atom  7.98161000e-01 3.59727000e+01 3.26576000e+01	N
atom  1.40520000e+00 3.83278000e+01 3.41840000e+01	N
atom  -2.48925000e-02 3.89959000e+01 3.19810000e+01	N
atom  -1.74934000e-01 3.88078000e+01 3.36522000e+01	Si
atom  6.63115000e-01 3.72924000e+01 3.01063000e+01	N
atom  1.85688000e+00 3.97981000e+01 3.00265000e+01	N
atom  2.57835000e-01 3.14413000e+01 3.64109000e+01	Si
atom  7.26402000e-01 3.21753000e+01 3.78968000e+01	N
atom  9.57460000e-01 3.38236000e+01 3.82566000e+01	Si
atom  1.60104000e-01 3.26025000e+01 3.51011000e+01	N
atom  9.18700000e-01 3.16679000e+01 3.96189000e+01	Si
atom  1.15323000e-01 3.56854000e+01 3.57331000e+01	N
atom  5.17680000e-01 3.70975000e+01 3.94215000e+01	N
atom  7.12973000e-01 3.81300000e+01 3.80579000e+01	Si
atom  1.73017000e+00 3.58496000e+01 3.62124000e+01	Si
atom  1.08548000e+00 3.98564000e+01 3.84746000e+01	N
atom  2.68818000e+00 4.89937000e+00 2.41975000e+00	Si
atom  3.70703000e+00 1.64689000e+00 3.96178000e+00	N
atom  2.38097000e+00 8.48546000e-01 3.28046000e+00	Si
atom  4.01829000e+00 3.82374000e+00 2.14117000e+00	N
atom  2.71530000e+00 6.54393000e-01 1.63492000e+00	N
atom  2.79281000e+00 5.87107000e+00 3.87326000e+00	N
atom  2.95587000e+00 5.97367000e+00 1.11983000e+00	N
atom  3.09852000e+00 9.18154000e+00 4.38015000e+00	N
atom  3.73898000e+00 1.02058000e+01 1.53348000e+00	N
atom  3.97871000e+00 9.39867000e+00 2.93359000e-02	Si
atom  3.81057000e+00 7.38045000e+00 4.32240000e+00	Si
atom  4.15492000e+00 9.50806000e+00 3.07995000e+00	Si
atom  2.34329000e+00 1.60998000e+00 8.58402000e+00	N
atom  3.49954000e+00 4.46720000e+00 8.63819000e+00	N
atom  2.76980000e+00 3.10044000e+00 7.81035000e+00	Si
atom  3.88988000e+00 2.76944000e+00 6.50485000e+00	N
atom  2.52014000e+00 7.09224000e+00 8.94145000e+00	N
atom  3.57751000e+00 9.27777000e+00 6.05967000e+00	Si
atom  2.18026000e+00 6.58142000e+00 6.47832000e+00	N
atom  3.25066000e+00 5.91827000e+00 7.67068000e+00	Si
atom  3.04358000e+00 8.79250000e+00 8.81295000e+00	Si
atom  2.33741000e+00 9.07652000e+00 7.20863000e+00	N
atom  2.94542000e+00 3.77389000e+00 1.26269000e+01	N
atom  3.04752000e+00 1.96990000e+00 1.24139000e+01	Si
atom  2.07752000e+00 1.56553000e+00 1.38906000e+01	N
atom  2.24321000e+00 8.50519000e-01 1.01162000e+01	Si
atom  3.26357000e+00 5.17755000e+00 1.46037000e+01	Si
atom  3.81695000e+00 5.95522000e+00 1.10828000e+01	N
atom  3.33839000e+00 8.30594000e+00 1.39477000e+01	N
atom  3.78527000e+00 7.35100000e+00 1.23766000e+01	Si
atom  3.40283000e+00 1.00875000e+01 1.38409000e+01	Si
atom  2.24238000e+00 6.39305000e+00 1.05861000e+01	Si
atom  1.98174000e+00 7.56687000e+00 1.19033000e+01	N
atom  1.98036000e+00 9.62534000e+00 9.88381000e+00	N
atom  3.77783000e+00 3.68308000e+00 1.51612000e+01	N
atom  2.73340000e+00 1.42480000e+00 1.65230000e+01	N
atom  2.55527000e+00 1.33129000e+00 1.92264000e+01	N
atom  2.44856000e+00 2.55754000e+00 1.52699000e+01	Si
atom  4.02034000e+00 4.76841000e-01 1.97730000e+01	Si
atom  4.22449000e+00 8.65979000e+00 1.66088000e+01	N
atom  3.30250000e+00 5.38265000e+00 1.94913000e+01	Si
atom  2.36219000e+00 6.68932000e+00 1.86156000e+01	N
atom  3.49449000e+00 6.22059000e+00 1.62080000e+01	N
atom  2.58862000e+00 9.27514000e+00 1.65508000e+01	Si
atom  2.31415000e+00 1.01933000e+01 1.80297000e+01	N
atom  4.31132000e+00 7.41759000e+00 1.51955000e+01	Si
atom  2.68331000e+00 2.79379000e+00 2.18430000e+01	N
atom  3.42367000e+00 4.28762000e+00 2.45832000e+01	N
atom  2.08672000e+00 2.66603000e+00 2.01251000e+01	Si
atom  2.93789000e+00 6.41528000e+00 2.10236000e+01	N
atom  3.36737000e+00 7.29721000e+00 2.24593000e+01	Si
atom  2.13027000e+00 8.21591000e+00 2.32287000e+01	N
atom  3.10538000e+00 2.19783000e+00 2.90400000e+01	N
atom  3.84330000e+00 1.71272000e+00 2.74823000e+01	Si
atom  2.53496000e+00 1.38576000e+00 2.63787000e+01	N
atom  4.05145000e+00 4.23483000e+00 2.61298000e+01	Si
atom  3.22381000e+00 5.09007000e+00 2.73204000e+01	N
atom  2.05092000e+00 9.31834000e+00 2.63873000e+01	Si
atom  3.54980000e+00 5.47636000e+00 2.89888000e+01	Si
atom  3.20334000e+00 8.42480000e+00 2.87024000e+01	Si
atom  4.29247000e+00 7.05335000e+00 2.91353000e+01	N
atom  2.37682000e+00 7.88756000e+00 2.72559000e+01	N
atom  1.89602000e+00 6.03988000e+00 2.90999000e+01	N
atom  2.99941000e+00 1.90999000e+00 3.31954000e+01	Si
atom  3.05888000e+00 3.26132000e+00 3.43470000e+01	N
atom  3.63050000e+00 2.44167000e+00 3.17161000e+01	N
atom  2.72716000e+00 6.27197000e+00 3.17301000e+01	N
atom  3.28458000e+00 8.37973000e+00 3.37555000e+01	N
atom  2.77900000e+00 9.99362000e+00 3.33896000e+01	Si
atom  2.08845000e+00 5.56066000e+00 3.45693000e+01	N
atom  3.66694000e+00 4.81772000e+00 3.47929000e+01	Si
atom  2.21709000e+00 8.09206000e-01 3.74150000e+01	Si
atom  3.76172000e+00 3.33726000e+00 3.76502000e+01	Si
atom  2.33171000e+00 2.46617000e+00 3.79929000e+01	N
atom  3.94966000e+00 4.23839000e+00 3.91706000e+01	N
atom  4.02695000e+00 4.59184000e+00 3.64765000e+01	N
atom  3.82747000e+00 7.03603000e+00 3.57164000e+01	N
atom  4.16411000e+00 6.11314000e+00 3.71329000e+01	Si
atom  2.81571000e+00 6.50855000e+00 3.80936000e+01	N
atom  2.20197000e+00 7.30703000e+00 3.47474000e+01	Si
atom  2.64997000e+00 5.38755000e+00 3.93822000e+01	Si
atom  2.41908000e+00 9.10621000e+00 3.89917000e+01	N
atom  3.15141000e+00 1.29697000e+01 2.20969000e+00	N
atom  2.51192000e+00 1.14180000e+01 1.71524000e+00	Si
atom  3.08929000e+00 1.94987000e+01 2.34163000e-01	N
atom  2.65506000e+00 1.94115000e+01 1.94395000e+00	Si
atom  3.71073000e+00 1.63758000e+01 2.17268000e+00	Si
atom  3.63882000e+00 1.80655000e+01 2.66478000e+00	N
atom  2.12436000e+00 1.56378000e+01 2.11817000e+00	N
atom  4.39298000e+00 1.67536000e+01 5.67767000e-01	N
atom  2.48758000e+00 1.45818000e+01 8.96902000e+00	N
atom  3.24701000e+00 1.19091000e+01 8.69692000e+00	N
atom  2.83089000e+00 1.33391000e+01 7.84608000e+00	Si
atom  3.06525000e+00 1.51326000e+01 5.38465000e+00	N
atom  4.02840000e+00 1.77463000e+01 5.83059000e+00	N
atom  3.34170000e+00 1.63672000e+01 6.53959000e+00	Si
atom  1.92813000e+00 1.99330000e+01 5.38950000e+00	N
atom  2.78210000e+00 1.94964000e+01 8.74769000e+00	N
atom  3.52155000e+00 1.93898000e+01 5.73914000e+00	Si
atom  3.54493000e+00 1.28791000e+01 1.15806000e+01	N
atom  3.43070000e+00 1.42859000e+01 1.04767000e+01	Si
atom  2.32954000e+00 1.05563000e+01 1.25998000e+01	N
atom  2.06977000e+00 1.22190000e+01 1.20549000e+01	Si
atom  2.65464000e+00 1.54573000e+01 1.15418000e+01	N
atom  2.89364000e+00 1.85683000e+01 1.20319000e+01	N
atom  2.82778000e+00 1.71913000e+01 1.09991000e+01	Si
atom  2.33192000e+00 1.73399000e+01 1.44859000e+01	N
atom  2.10452000e+00 1.88382000e+01 1.35647000e+01	Si
atom  3.67906000e+00 1.28140000e+01 1.92538000e+01	N
atom  2.48696000e+00 1.18969000e+01 1.84248000e+01	Si
atom  2.46233000e+00 1.04925000e+01 1.52720000e+01	N
atom  3.97484000e+00 1.69029000e+01 1.52565000e+01	Si
atom  2.22899000e+00 1.61810000e+01 1.82606000e+01	Si
atom  3.22147000e+00 1.55145000e+01 1.95487000e+01	N
atom  2.82467000e+00 1.87382000e+01 1.95663000e+01	Si
atom  2.95510000e+00 1.63994000e+01 1.66978000e+01	N
atom  3.49642000e+00 1.40406000e+01 2.03852000e+01	Si
atom  2.50867000e+00 1.08574000e+01 2.19590000e+01	N
atom  2.22686000e+00 1.37349000e+01 2.15342000e+01	N
atom  3.10981000e+00 1.27591000e+01 2.46335000e+01	N
atom  4.20550000e+00 1.04178000e+01 2.19410000e+01	Si
atom  3.33943000e+00 1.54012000e+01 2.33051000e+01	N
atom  3.12791000e+00 1.73282000e+01 2.24673000e+01	Si
atom  2.68942000e+00 1.86465000e+01 2.12853000e+01	N
atom  3.89888000e+00 1.82770000e+01 2.37477000e+01	N
atom  2.09270000e+00 1.98865000e+01 2.23641000e+01	Si
atom  2.93851000e+00 1.44664000e+01 2.47922000e+01	Si
atom  2.64179000e+00 1.27461000e+01 2.93740000e+01	Si
atom  3.63449000e+00 1.25154000e+01 2.79602000e+01	N
atom  3.49665000e+00 1.09247000e+01 2.75046000e+01	Si
atom  4.06951000e+00 1.48949000e+01 2.60874000e+01	N
atom  4.22124000e+00 1.15536000e+01 2.49487000e+01	Si
atom  3.41430000e+00 1.03970000e+01 2.58678000e+01	N
atom  3.64107000e+00 1.82193000e+01 2.54705000e+01	Si
atom  2.36686000e+00 1.83778000e+01 2.85080000e+01	N
atom  3.12682000e+00 1.57405000e+01 2.93111000e+01	Si
atom  4.14442000e+00 1.82730000e+01 2.78524000e+01	Si
atom  3.46634000e+00 1.96343000e+01 2.65633000e+01	N
atom  2.15465000e+00 1.73713000e+01 2.58700000e+01	N
atom  2.07447000e+00 1.98376000e+01 2.75891000e+01	Si
atom  2.96474000e+00 1.42628000e+01 3.02701000e+01	N
atom  2.91279000e+00 1.13235000e+01 3.04227000e+01	N
atom  4.14097000e+00 1.09402000e+01 3.27959000e+01	N
atom  2.39433000e+00 1.51162000e+01 3.16430000e+01	Si
atom  3.74920000e+00 1.28303000e+01 3.45694000e+01	N
atom  2.01846000e+00 1.25250000e+01 3.46637000e+01	Si
atom  2.01673000e+00 1.07900000e+01 3.47879000e+01	N
atom  3.51323000e+00 1.55340000e+01 3.29154000e+01	N
atom  2.87414000e+00 1.97275000e+01 3.10087000e+01	N
atom  2.88683000e+00 1.67118000e+01 3.07765000e+01	N
atom  3.51401000e+00 1.82757000e+01 3.31735000e+01	N
atom  2.31631000e+00 1.82785000e+01 3.03133000e+01	Si
atom  4.19403000e+00 1.94108000e+01 3.20865000e+01	Si
atom  2.31814000e+00 1.33698000e+01 3.73867000e+01	Si
atom  3.55950000e+00 1.45182000e+01 3.68848000e+01	N
atom  3.02167000e+00 1.17971000e+01 3.75307000e+01	N
atom  2.07249000e+00 1.07325000e+01 3.85643000e+01	Si
atom  2.14530000e+00 1.92288000e+01 3.59563000e+01	N
atom  3.42000000e+00 1.85051000e+01 3.49050000e+01	Si
atom  2.74411000e+00 1.67812000e+01 3.81915000e+01	N
atom  3.90190000e+00 1.61819000e+01 3.70701000e+01	Si
atom  4.08351000e+00 1.69060000e+01 3.54878000e+01	N
atom  3.64677000e+00 1.78323000e+01 3.93054000e+01	Si
atom  2.85546000e+00 2.38687000e+01 1.24668000e+00	N
atom  2.48332000e+00 2.09942000e+01 2.65088000e+00	N
atom  2.32472000e+00 2.12700000e+01 4.33296000e+00	Si
atom  3.59762000e+00 2.52713000e+01 1.88051000e+00	Si
atom  3.37502000e+00 2.75233000e+01 3.97196000e+00	N
atom  3.80802000e+00 2.89844000e+01 7.57152000e-01	N
atom  2.38701000e+00 2.66103000e+01 1.64887000e+00	N
atom  4.16275000e+00 2.73455000e+01 1.19269000e-01	Si
atom  1.97587000e+00 2.77116000e+01 2.89718000e+00	Si
atom  2.66548000e+00 3.02817000e+01 1.14965000e+00	Si
atom  3.55610000e+00 2.22638000e+01 5.09040000e+00	N
atom  2.88680000e+00 2.30775000e+01 6.41187000e+00	Si
atom  3.89356000e+00 2.39438000e+01 7.60225000e+00	N
atom  2.13143000e+00 2.46315000e+01 5.92986000e+00	N
atom  4.16589000e+00 2.66077000e+01 6.08057000e+00	N
atom  3.81650000e+00 2.85562000e+01 8.43110000e+00	N
atom  3.52133000e+00 2.71159000e+01 9.35877000e+00	Si
atom  3.22837000e+00 2.54457000e+01 7.07797000e+00	Si
atom  2.17489000e+00 2.90522000e+01 7.98859000e+00	Si
atom  4.20164000e+00 2.97014000e+01 5.83342000e+00	N
atom  3.43032000e+00 2.81462000e+01 5.58942000e+00	Si
atom  2.33330000e+00 2.61590000e+01 8.32835000e+00	N
atom  3.49945000e+00 2.20817000e+01 1.05525000e+01	Si
atom  3.84460000e+00 2.20747000e+01 1.22852000e+01	N
atom  2.24053000e+00 2.46079000e+01 1.42744000e+01	Si
atom  4.05278000e+00 2.10660000e+01 1.36271000e+01	Si
atom  2.57283000e+00 2.03475000e+01 1.42796000e+01	N
atom  3.10729000e+00 2.50687000e+01 1.28575000e+01	N
atom  4.02905000e+00 2.37334000e+01 1.04432000e+01	N
atom  4.16078000e+00 2.38559000e+01 1.21909000e+01	Si
atom  2.53902000e+00 2.65024000e+01 1.20851000e+01	Si
atom  3.25498000e+00 2.97432000e+01 1.27629000e+01	N
atom  3.58611000e+00 2.74584000e+01 1.10721000e+01	N
atom  2.31810000e+00 2.30401000e+01 1.50135000e+01	N
atom  3.38270000e+00 2.24954000e+01 1.75782000e+01	N
atom  3.76508000e+00 2.29545000e+01 1.59833000e+01	Si
atom  2.87890000e+00 2.04686000e+01 1.94182000e+01	N
atom  4.14545000e+00 2.13078000e+01 1.86394000e+01	Si
atom  4.08101000e+00 2.63845000e+01 1.74983000e+01	N
atom  2.38329000e+00 2.96661000e+01 1.82265000e+01	Si
atom  4.01729000e+00 2.83299000e+01 1.53971000e+01	N