lattice_vector  3.98949093e+01 0.00000000e+00 0.00000000e+00
lattice_vector  2.44285865e-15 3.98949093e+01 0.00000000e+00
lattice_vector  2.44285865e-15 2.44285865e-15 3.98949093e+01
atom  2.18615000e+00 1.48796000e+00 6.27907000e-01	N
atom  4.44996000e+00 2.47327000e+00 2.51466000e+00	N
atom  6.76269000e-01 4.75030000e-01 4.49867000e+00	N
atom  5.89512000e+00 1.36006000e+00 2.46329000e+00	Si
atom  8.16856000e+00 1.75537000e+00 4.48163000e+00	Si
atom  6.45077000e+00 1.43557000e+00 4.11742000e+00	N
atom  9.14075000e+00 4.84656000e-01 3.92053000e+00	N
atom  6.73800000e+00 2.45650000e+00 1.47202000e+00	N
atom  9.38355000e+00 1.52349000e+00 1.41672000e+00	N
atom  8.97708000e+00 2.08239000e-01 3.23806000e-01	Si
atom  3.44752000e+00 1.59469000e+00 4.81407000e+00	N
atom  5.15905000e-01 1.41694000e+00 7.21111000e+00	N
atom  3.06351000e+00 9.44408000e-01 8.07281000e+00	N
atom  3.86002000e+00 2.42468000e+00 7.69385000e+00	Si
atom  1.31486000e+00 6.55765000e-01 8.58961000e+00	Si
atom  -3.76114000e-01 5.72293000e-01 5.88727000e+00	Si
atom  1.44438000e+00 2.72873000e+00 9.19693000e+00	N
atom  7.11042000e+00 2.34638000e+00 8.87289000e+00	N
atom  5.10320000e+00 1.52201000e+00 5.29499000e+00	Si
atom  9.44247000e+00 1.17246000e+00 6.97897000e+00	Si
atom  8.16803000e+00 2.05735000e+00 6.19417000e+00	N
atom  5.26078000e+00 2.39223000e+00 6.73172000e+00	N
atom  8.48103000e+00 1.43547000e+00 9.49718000e+00	Si
atom  2.75166000e+00 1.15336000e+00 1.08764000e+01	N
atom  4.33861000e-01 1.12895000e+00 1.42232000e+01	Si
atom  1.09249000e+00 1.00258000e+00 1.14930000e+01	Si
atom  1.74048000e+00 2.22733000e+00 1.40683000e+01	N
atom  2.56709000e-01 2.43451000e+00 1.18106000e+01	N
atom  4.48937000e+00 1.67899000e+00 1.41011000e+01	N
atom  2.38059000e-01 4.02962000e-01 1.00374000e+01	N
atom  5.68365000e+00 1.08956000e+00 1.09085000e+01	N
atom  8.07329000e+00 1.20922000e+00 1.40122000e+01	Si
atom  9.47861000e+00 9.16025000e-01 1.30109000e+01	N
atom  6.77022000e+00 2.89442000e-01 1.33207000e+01	N
atom  1.57601000e+00 5.17305000e-01 1.71190000e+01	Si
atom  3.18160000e+00 2.28497000e+00 1.50764000e+01	Si
atom  4.13165000e+00 1.09810000e+00 1.77359000e+01	Si
atom  5.89316000e-01 1.22867000e+00 1.84457000e+01	N
atom  2.92370000e+00 1.36379000e+00 1.65726000e+01	N
atom  4.82716000e+00 2.57498000e+00 1.86236000e+01	N
atom  7.39804000e+00 1.05770000e+00 1.95276000e+01	N
atom  8.74566000e+00 1.20290000e+00 1.56414000e+01	N
atom  8.94324000e+00 7.74977000e-01 1.89105000e+01	Si
atom  9.52021000e+00 2.20480000e+00 1.81413000e+01	N
atom  5.56985000e+00 5.02255000e-01 1.69929000e+01	N
atom  1.15528000e+00 1.79505000e+00 2.31525000e+01	N
atom  2.51781000e+00 1.06040000e+00 2.10611000e+01	N
atom  2.83726000e+00 1.72907000e+00 2.26157000e+01	Si
atom  9.50658000e-01 1.08329000e+00 2.01449000e+01	Si
atom  -1.16494000e-01 2.36758000e+00 2.21061000e+01	Si
atom  3.78401000e+00 4.84722000e-01 2.35934000e+01	N
atom  1.21681000e+00 1.04600000e+00 2.47703000e+01	Si
atom  8.04559000e+00 7.10894000e-01 2.20585000e+01	N
atom  7.59690000e+00 2.43457000e+00 2.21794000e+01	Si
atom  5.25200000e+00 6.18910000e-01 2.05515000e+01	N
atom  6.87725000e+00 2.85785000e+00 2.36383000e+01	N
atom  5.98148000e+00 1.99750000e+00 1.97865000e+01	Si
atom  4.19293000e+00 9.49862000e-01 2.52278000e+01	Si
atom  -2.93274000e-02 1.89226000e+00 2.56495000e+01	N
atom  2.45353000e+00 1.61294000e+00 2.74827000e+01	Si
atom  2.59110000e+00 1.53496000e+00 2.57255000e+01	N
atom  4.17164000e+00 1.53476000e+00 2.78691000e+01	N
atom  4.65875000e+00 7.62244000e-01 2.93953000e+01	Si
atom  8.56559000e+00 1.20211000e+00 2.77504000e+01	Si
atom  8.49318000e+00 3.81232000e-01 2.92210000e+01	N
atom  7.03472000e+00 1.33137000e+00 2.69368000e+01	N
atom  5.56737000e+00 2.35681000e+00 2.72804000e+01	Si
atom  5.28601000e+00 2.25780000e+00 2.54674000e+01	N
atom  7.24186000e+00 1.78214000e+00 2.51362000e+01	Si
atom  2.00325000e-01 1.60029000e+00 3.24356000e+01	N
atom  4.42733000e+00 6.43655000e-01 3.26919000e+01	N
atom  4.65501000e+00 2.13238000e+00 3.20355000e+01	Si
atom  4.82897000e+00 2.15222000e+00 3.03393000e+01	N
atom  7.36807000e+00 1.94529000e+00 3.17754000e+01	Si
atom  7.02525000e+00 1.94216000e+00 3.42282000e+01	Si
atom  8.45997000e+00 1.84110000e+00 3.31533000e+01	N
atom  6.73995000e+00 3.05433000e-01 3.14718000e+01	N
atom  6.14434000e+00 2.73120000e+00 3.29091000e+01	N
atom  4.33851000e+00 1.77101000e+00 3.73651000e+01	Si
atom  3.55402000e+00 6.96338000e-01 3.83898000e+01	N
atom  3.14819000e+00 2.23815000e+00 3.61965000e+01	N
atom  1.97260000e+00 1.05301000e+00 3.88232000e+01	Si
atom  1.41200000e+00 2.00305000e+00 3.62377000e+01	Si
atom  1.06249000e+00 2.24287000e+00 3.79276000e+01	N
atom  6.03172000e+00 1.32138000e+00 3.73214000e+01	N
atom  3.92660000e+00 3.67627000e+00 4.05189000e-01	N
atom  1.00147000e+00 3.89596000e+00 3.04073000e-01	N
atom  1.26621000e-01 3.03017000e+00 3.27401000e+00	Si
atom  2.33648000e+00 3.16954000e+00 1.13531000e+00	Si
atom  1.83092000e+00 3.03976000e+00 2.89523000e+00	N
atom  3.86010000e+00 4.41722000e+00 4.42739000e+00	N
atom  3.35979000e+00 2.99470000e+00 3.76213000e+00	Si
atom  8.78264000e+00 4.21571000e+00 6.12175000e-01	N
atom  5.36361000e+00 3.60990000e+00 1.38172000e+00	Si
atom  8.51609000e+00 3.12097000e+00 3.39453000e+00	N
atom  8.41076000e+00 2.93148000e+00 1.67811000e+00	Si
atom  6.18443000e+00 4.77481000e+00 -6.12880000e-03	N
atom  9.46620000e+00 4.44839000e+00 3.88554000e+00	Si
atom  1.07112000e-01 4.97019000e+00 5.70558000e+00	Si
atom  -2.53983000e-01 3.42399000e+00 4.95821000e+00	N
atom  3.05370000e+00 4.87841000e+00 5.97007000e+00	Si
atom  2.84885000e-01 4.59540000e+00 7.37354000e+00	N
atom  2.64560000e+00 3.40419000e+00 6.85545000e+00	N
atom  4.30398000e+00 3.10373000e+00 9.27182000e+00	N
atom  1.07249000e+00 3.05708000e+00 7.51797000e+00	Si
atom  4.42299000e+00 4.93925000e+00 8.92668000e+00	Si
atom  7.23521000e+00 4.59519000e+00 6.89577000e+00	N
atom  6.94431000e+00 2.87049000e+00 7.09680000e+00	Si
atom  1.93693000e+00 3.57083000e+00 1.30411000e+01	Si
atom  2.46809000e+00 3.89227000e+00 1.13379000e+01	N
atom  3.47843000e+00 4.09821000e+00 1.36252000e+01	N
atom  1.14684000e-01 3.29395000e+00 1.02713000e+01	Si
atom  7.37219000e-01 4.69437000e+00 1.35557000e+01	N
atom  2.83888000e+00 2.73018000e+00 1.01742000e+01	Si
atom  3.01062000e-01 4.98534000e+00 1.02563000e+01	N
atom  9.23837000e+00 4.34157000e+00 1.03688000e+01	Si
atom  5.75036000e+00 3.56242000e+00 1.17529000e+01	N
atom  5.07628000e+00 3.17393000e+00 1.33322000e+01	Si
atom  5.81015000e+00 4.18053000e+00 1.45446000e+01	N
atom  7.55288000e+00 4.29970000e+00 1.46584000e+01	Si
atom  8.13179000e+00 2.96062000e+00 1.36619000e+01	N
atom  8.76759000e+00 2.76661000e+00 1.09534000e+01	N
atom  9.33570000e+00 2.64658000e+00 1.25557000e+01	Si
atom  5.79612000e+00 2.62640000e+00 1.01237000e+01	Si
atom  1.71218000e+00 4.35792000e+00 1.69607000e+01	Si
atom  1.42040000e-01 3.61968000e+00 1.71563000e+01	N
atom  4.19842000e+00 4.20601000e+00 1.84927000e+01	Si
atom  2.46709000e+00 4.33545000e+00 1.85207000e+01	N
atom  4.20179000e+00 4.79347000e+00 1.51322000e+01	Si
atom  3.08134000e+00 3.87024000e+00 1.60719000e+01	N
atom  1.26651000e+00 4.27206000e+00 1.97782000e+01	Si
atom  6.95661000e+00 4.90057000e+00 1.75636000e+01	Si
atom  7.48889000e+00 4.79070000e+00 1.91370000e+01	N
atom  7.90461000e+00 3.98584000e+00 1.63684000e+01	N
atom  5.18310000e+00 5.03830000e+00 1.73241000e+01	N
atom  9.16760000e+00 2.70934000e+00 1.65234000e+01	Si
atom  3.67282000e+00 3.22108000e+00 2.32646000e+01	N
atom  3.00305000e+00 4.82487000e+00 2.34793000e+01	Si
atom  8.24272000e-01 2.87730000e+00 2.05922000e+01	N
atom  9.30830000e+00 2.83125000e+00 2.23978000e+01	N
atom  5.17843000e+00 3.20709000e+00 2.40955000e+01	Si
atom  6.61940000e+00 3.14428000e+00 2.10045000e+01	N
atom  6.31302000e+00 4.81160000e+00 2.04094000e+01	Si
atom  5.62430000e+00 4.84326000e+00 2.44541000e+01	N
atom  7.31573000e+00 4.37734000e+00 2.45808000e+01	Si
atom  4.64436000e+00 4.96279000e+00 1.99773000e+01	N
atom  1.32196000e+00 2.79386000e+00 2.80003000e+01	N
atom  1.64031000e-01 4.80798000e+00 2.60003000e+01	N
atom  8.74091000e-02 3.20188000e+00 2.69115000e+01	Si
atom  3.48046000e+00 4.36084000e+00 2.89452000e+01	N
atom  1.83817000e+00 4.00195000e+00 2.92630000e+01	Si
atom  8.83500000e+00 2.62419000e+00 2.51774000e+01	N
atom  4.89214000e+00 3.74865000e+00 2.95787000e+01	Si
atom  9.20757000e+00 2.82843000e+00 2.79819000e+01	N
atom  8.97852000e+00 3.61356000e+00 2.65533000e+01	Si
atom  7.54803000e+00 4.50658000e+00 2.63376000e+01	N
atom  5.98052000e+00 3.72624000e+00 2.82311000e+01	N
atom  2.52965000e+00 4.48094000e+00 3.20613000e+01	Si
atom  3.89472000e+00 3.53634000e+00 3.24757000e+01	N
atom  1.55805000e+00 3.65517000e+00 3.09437000e+01	N
atom  -2.26281000e-02 3.00206000e+00 3.12512000e+01	Si
atom  1.52970000e+00 4.93501000e+00 3.35003000e+01	N
atom  7.78052000e+00 3.07177000e+00 3.06458000e+01	N
atom  5.21528000e+00 4.18410000e+00 3.32952000e+01	Si
atom  7.36703000e+00 4.67508000e+00 3.02936000e+01	Si
atom  -4.60517000e-02 3.03533000e+00 3.90738000e+01	Si
atom  3.67761000e+00 3.93511000e+00 3.61837000e+01	Si
atom  9.76295000e-01 4.68442000e+00 3.51705000e+01	Si
atom  5.28202000e-01 2.92870000e+00 3.50236000e+01	N
atom  2.33565000e+00 4.96822000e+00 3.63686000e+01	N
atom  4.68530000e+00 4.56023000e+00 3.89852000e+01	Si
atom  6.42344000e+00 2.93493000e+00 3.70591000e+01	Si
atom  4.71973000e+00 4.42426000e+00 3.49979000e+01	N
atom  4.77436000e+00 3.49611000e+00 3.75935000e+01	N
atom  7.70481000e+00 3.75818000e+00 3.77781000e+01	N
atom  7.75070000e+00 4.71771000e+00 3.91622000e+01	Si
atom  7.25286000e+00 3.02391000e+00 3.55519000e+01	N
atom  8.64435000e+00 3.91993000e+00 3.63157000e+01	Si
atom  1.65096000e+00 5.88373000e+00 2.30279000e+00	N
atom  1.98491000e+00 6.60413000e+00 3.81331000e+00	Si
atom  3.87275000e-01 5.22619000e+00 1.32677000e+00	Si
atom  3.62701000e+00 7.14136000e+00 3.93435000e+00	N
atom  4.80835000e+00 5.84819000e+00 3.86812000e+00	Si
atom  8.01068000e+00 6.43684000e+00 1.74301000e+00	N
atom  6.36450000e+00 6.01697000e+00 1.20631000e+00	Si
atom  8.37196000e+00 5.68274000e+00 4.26553000e+00	N
atom  5.53892000e+00 5.06553000e+00 2.44085000e+00	N
atom  8.01570000e+00 7.32350000e+00 3.41034000e+00	Si
atom  5.28814000e+00 7.26801000e+00 8.60677000e-01	N
atom  -1.01186000e-01 5.76210000e+00 8.74348000e+00	Si
atom  1.65652000e+00 5.61988000e+00 5.23703000e+00	N
atom  4.23464000e+00 5.33313000e+00 7.20325000e+00	N
atom  2.97658000e+00 5.78800000e+00 9.52939000e+00	N
atom  8.12107000e-01 7.27962000e+00 8.72632000e+00	N
atom  8.88325000e+00 5.13652000e+00 8.83976000e+00	N
atom  7.56165000e+00 6.05965000e+00 5.77576000e+00	Si
atom  5.98595000e+00 5.12153000e+00 9.65871000e+00	N
atom  5.09089000e+00 6.82030000e+00 6.66269000e+00	Si
atom  5.87865000e+00 6.13422000e+00 5.16443000e+00	N
atom  6.76136000e+00 6.93294000e+00 7.61800000e+00	N
atom  7.26556000e+00 5.47644000e+00 8.36162000e+00	Si
atom  1.65306000e+00 6.79587000e+00 1.18800000e+01	N
atom  8.47418000e-01 6.38665000e+00 1.32922000e+01	Si
atom  1.91281000e+00 5.50160000e+00 1.08664000e+01	Si
atom  8.13208000e+00 5.89826000e+00 1.42472000e+01	N
atom  6.36971000e+00 6.55410000e+00 1.22716000e+01	N
atom  8.20433000e+00 6.57279000e+00 1.26164000e+01	Si
atom  8.27411000e+00 5.22805000e+00 1.14464000e+01	N
atom  6.50365000e+00 5.05362000e+00 1.13049000e+01	Si
atom  8.93132000e-01 5.92761000e+00 1.69025000e+01	N
atom  4.29963000e+00 6.51773000e+00 1.53855000e+01	N
atom  -3.00378000e-01 4.91593000e+00 1.92928000e+01	N
atom  5.29491000e+00 6.76439000e+00 1.67424000e+01	Si
atom  7.19234000e+00 6.58901000e+00 1.70104000e+01	N
atom  9.09749000e+00 5.47584000e+00 1.94103000e+01	Si
atom  8.40788000e+00 6.81154000e+00 1.57297000e+01	Si
atom  9.08842000e+00 7.20073000e+00 1.91210000e+01	N
atom  3.45951000e+00 5.86296000e+00 2.08875000e+01	Si
atom  3.97721000e+00 5.81573000e+00 2.25182000e+01	N
atom  4.41144000e-01 5.44142000e+00 2.20699000e+01	Si
atom  1.30862000e+00 5.42738000e+00 2.35669000e+01	N
atom  1.83845000e+00 5.28587000e+00 2.10430000e+01	N
atom  -4.79929000e-01 6.92275000e+00 2.16441000e+01	N
atom  3.43177000e+00 7.52524000e+00 2.03547000e+01	N
atom  6.68004000e+00 5.73572000e+00 2.18598000e+01	N
atom  8.31248000e+00 5.99244000e+00 2.24121000e+01	Si
atom  5.50977000e+00 6.50217000e+00 2.28873000e+01	Si
atom  8.64206000e+00 5.39442000e+00 2.39733000e+01	N
atom  9.23120000e+00 5.24541000e+00 2.11403000e+01	N
atom  5.16499000e+00 7.24384000e+00 2.44158000e+01	N
atom  1.38975000e+00 7.21782000e+00 2.63579000e+01	N
atom  1.39805000e+00 5.78931000e+00 2.52830000e+01	Si
atom  1.20137000e+00 6.81016000e+00 2.80154000e+01	Si
atom  8.30519000e-01 5.26590000e+00 2.86526000e+01	N
atom  3.07968000e+00 5.33065000e+00 2.51807000e+01	N
atom  5.56929000e+00 6.32291000e+00 2.69587000e+01	N
atom  7.71542000e+00 5.73824000e+00 2.89514000e+01	N
atom  4.74048000e+00 5.88092000e+00 2.54425000e+01	Si
atom  6.65554000e+00 5.18990000e+00 2.76128000e+01	Si
atom  3.27215000e+00 5.94002000e+00 3.16260000e+01	N
atom  2.25139000e-01 5.67066000e+00 3.25765000e+01	Si
atom  6.71451000e-01 6.54968000e+00 3.11589000e+01	N
atom  2.39347000e+00 7.27476000e+00 3.09884000e+01	Si
atom  3.75177000e+00 7.01077000e+00 3.45997000e+01	N
atom  -3.25756000e-01 7.11069000e+00 3.34357000e+01	N
atom  4.97589000e+00 6.45030000e+00 3.14249000e+01	Si
atom  8.10760000e+00 5.81068000e+00 3.14110000e+01	N
atom  5.79721000e+00 5.89992000e+00 3.32341000e+01	N
atom  7.28106000e+00 6.68920000e+00 3.26314000e+01	Si
atom  8.52659000e+00 7.13705000e+00 3.38188000e+01	N
atom  7.72573000e+00 7.16368000e+00 3.01034000e+01	Si
atom  5.63942000e+00 5.04507000e+00 3.06425000e+01	N
atom  2.51894000e+00 6.20841000e+00 3.75862000e+01	Si
atom  1.04963000e+00 6.46768000e+00 3.84611000e+01	N
atom  3.91387000e+00 6.03419000e+00 3.86191000e+01	N
atom  -2.28029000e-01 5.66520000e+00 3.59512000e+01	N
atom  -3.02017000e-01 5.74979000e+00 3.76308000e+01	Si
atom  5.18221000e+00 6.09558000e+00 3.48646000e+01	Si
atom  7.77013000e+00 6.60935000e+00 3.69885000e+01	Si
atom  8.21951000e+00 6.38303000e+00 3.86146000e+01	N
atom  6.12039000e+00 6.63358000e+00 3.61993000e+01	N
atom  8.89341000e+00 5.61442000e+00 3.59960000e+01	N
atom  1.32472000e+00 8.24883000e+00 3.82545000e+00	N
atom  3.04838000e+00 8.85618000e+00 3.81347000e+00	Si
atom  3.80545000e+00 9.31007000e+00 2.31891000e+00	N
atom  -3.13103000e-01 8.74990000e+00 4.19288000e+00	Si
atom  5.36794000e+00 8.49388000e+00 2.11711000e+00	Si
atom  6.46291000e+00 8.02973000e+00 3.34263000e+00	N
atom  9.07445000e+00 8.69625000e+00 2.95021000e+00	N
atom  8.93306000e+00 9.18372000e+00 1.23691000e-01	N
atom  8.17821000e+00 9.53910000e+00 1.66403000e+00	Si
atom  6.42177000e+00 9.69437000e+00 1.33889000e+00	N
atom  3.67277000e+00 7.74120000e+00 7.44046000e+00	N
atom  4.07964000e+00 9.35061000e+00 6.75515000e+00	Si
atom  -1.73947000e-01 8.55809000e+00 9.34632000e+00	Si
atom  2.61444000e+00 7.28786000e+00 8.71222000e+00	Si
atom  7.36712000e+00 8.89109000e+00 9.29564000e+00	N
atom  5.58959000e+00 8.54747000e+00 6.14025000e+00	N
atom  6.48964000e+00 8.66865000e+00 7.85768000e+00	Si
atom  8.09750000e+00 7.89226000e+00 5.36224000e+00	N
atom  6.69860000e+00 8.93912000e+00 4.88530000e+00	Si
atom  8.99506000e+00 9.47281000e+00 8.64609000e+00	Si
atom  2.72911000e+00 8.11724000e+00 1.16008000e+01	Si
atom  3.93769000e+00 7.67477000e+00 1.28388000e+01	N
atom  3.40620000e+00 7.59831000e+00 1.44443000e+01	Si
atom  2.08964000e+00 9.40193000e+00 1.26401000e+01	N
atom  6.50468000e-01 8.97577000e+00 1.45358000e+01	Si
atom  3.13423000e+00 8.50895000e+00 9.91451000e+00	N
atom  1.52370000e+00 7.43255000e+00 1.45914000e+01	N
atom  5.22972000e-01 9.68991000e+00 1.04455000e+01	N
atom  6.14488000e+00 8.80407000e+00 1.40598000e+01	N
atom  8.04754000e+00 8.37392000e+00 1.22516000e+01	N
atom  7.79901000e+00 9.10043000e+00 1.38295000e+01	Si
atom  5.62955000e+00 8.03451000e+00 1.25386000e+01	Si
atom  5.61643000e+00 9.46411000e+00 1.14419000e+01	N
atom  7.32316000e+00 9.40052000e+00 1.09288000e+01	Si
atom  9.73509000e-01 7.51492000e+00 1.62976000e+01	Si
atom  -3.29829000e-01 8.68571000e+00 1.60231000e+01	N
atom  -1.19050000e-01 8.67717000e+00 1.89922000e+01	N
atom  3.62002000e+00 9.16906000e+00 1.68717000e+01	Si
atom  2.06519000e+00 8.51964000e+00 1.71957000e+01	N
atom  3.75456000e+00 9.23139000e+00 1.51212000e+01	N
atom  1.30307000e+00 9.57286000e+00 1.83315000e+01	Si
atom  2.51519000e+00 9.84416000e+00 1.95662000e+01	N
atom  8.37825000e+00 8.54031000e+00 1.53815000e+01	N
atom  6.43802000e+00 7.43077000e+00 1.96524000e+01	N
atom  8.58146000e+00 9.53720000e+00 1.67810000e+01	Si
atom  4.65184000e+00 7.98560000e+00 1.77069000e+01	N
atom  4.76917000e+00 8.16022000e+00 1.94274000e+01	Si
atom  7.34969000e+00 9.25939000e+00 1.79236000e+01	N
atom  7.51103000e+00 7.59163000e+00 1.83940000e+01	Si
atom  2.59743000e+00 8.91475000e+00 2.10318000e+01	Si
atom  1.74326000e+00 9.19379000e+00 2.43133000e+01	N
atom  1.02477000e+00 9.03009000e+00 2.16595000e+01	N
atom  -2.29828000e-01 8.40068000e+00 2.07176000e+01	Si
atom  4.88783000e-01 9.63247000e+00 2.32182000e+01	Si
atom  3.55157000e+00 9.56252000e+00 2.22979000e+01	N
atom  8.49475000e+00 7.68298000e+00 2.23425000e+01	N
atom  5.69244000e+00 8.09837000e+00 2.20223000e+01	N
atom  8.61676000e+00 9.06356000e+00 2.34493000e+01	Si
atom  7.21628000e+00 8.00347000e+00 2.11858000e+01	Si
atom  6.97982000e+00 9.46280000e+00 2.37475000e+01	N
atom  7.64169000e+00 9.58568000e+00 2.06194000e+01	N
atom  1.17546000e+00 8.90238000e+00 2.59191000e+01	Si
atom  3.47640000e+00 8.73066000e+00 2.92318000e+01	Si
atom  4.44196000e+00 8.83916000e+00 2.78695000e+01	N
atom  4.33690000e+00 9.62377000e+00 2.51301000e+01	N
atom  -2.65923000e-01 7.70842000e+00 2.84645000e+01	N
atom  2.24301000e+00 7.59677000e+00 2.91599000e+01	N
atom  6.99418000e+00 8.27102000e+00 2.88960000e+01	N
atom  5.78053000e+00 8.78492000e+00 2.48344000e+01	Si
atom  5.90803000e+00 7.95833000e+00 2.75610000e+01	Si
atom  9.34767000e+00 9.01919000e+00 2.50724000e+01	N
atom  6.74940000e+00 8.74455000e+00 2.62804000e+01	N
atom  8.28128000e+00 9.36259000e+00 2.91372000e+01	Si
atom  1.84687000e+00 8.56197000e+00 3.20230000e+01	N
atom  1.41816000e-01 8.34918000e+00 3.23403000e+01	Si
atom  4.16050000e+00 8.02080000e+00 3.07346000e+01	N
atom  -2.86970000e-01 9.65907000e+00 3.33696000e+01	N
atom  2.84229000e+00 9.59195000e+00 3.29983000e+01	Si
atom  2.19924000e+00 9.34862000e+00 3.45658000e+01	N
atom  4.53837000e+00 9.33311000e+00 3.30176000e+01	N
atom  8.73165000e+00 8.87117000e+00 3.39146000e+01	Si
atom  5.46981000e+00 9.00795000e+00 3.15538000e+01	Si
atom  7.06120000e+00 9.22716000e+00 3.39054000e+01	N
atom  6.53021000e+00 7.64294000e+00 3.14096000e+01	N
atom  9.35343000e+00 9.35029000e+00 3.23742000e+01	N
atom  9.20341000e+00 8.20364000e+00 2.99931000e+01	N
atom  2.62389000e+00 7.83503000e+00 3.69639000e+01	N
atom  3.33711000e+00 8.41578000e+00 3.54871000e+01	Si
atom  5.68445000e-01 9.12491000e+00 3.89508000e+01	N
atom  2.13528000e+00 8.91581000e+00 3.81941000e+01	Si
atom  3.11308000e+00 8.61870000e+00 3.96789000e+01	N
atom  4.39365000e+00 7.55403000e+00 3.92825000e+01	Si
atom  4.56669000e-01 9.56172000e+00 3.49343000e+01	Si
atom  -6.54288000e-02 7.51854000e+00 3.93079000e+01	Si
atom  -4.83233000e-01 8.61459000e+00 3.60233000e+01	N
atom  4.92236000e+00 9.23315000e+00 3.56579000e+01	N
atom  9.36608000e+00 7.60554000e+00 3.92348000e+01	Si
atom  5.22200000e+00 8.65265000e+00 3.82228000e+01	N
atom  7.74376000e+00 8.41075000e+00 3.68675000e+01	N
atom  6.01526000e+00 8.34035000e+00 3.66918000e+01	Si
atom  9.19458000e+00 9.28249000e+00 3.68552000e+01	Si
atom  9.42597000e+00 9.68925000e+00 3.52089000e+01	N
atom  1.62670000e+00 1.09766000e+01 8.51800000e-01	N
atom  3.10145000e+00 9.97487000e+00 8.49918000e-01	Si
atom  4.32762000e+00 1.08985000e+01 -5.08356000e-02	N
atom  8.49125000e+00 1.12058000e+01 2.29547000e+00	N
atom  5.99222000e+00 1.12467000e+01 6.55475000e-01	Si
atom  7.14495000e+00 1.05526000e+01 4.54425000e+00	N
atom  7.17180000e+00 1.18020000e+01 3.28278000e+00	Si
atom  5.71654000e+00 1.19961000e+01 2.36532000e+00	N
atom  3.60722000e+00 1.00012000e+01 9.24370000e+00	Si
atom  2.85644000e-01 1.06054000e+01 5.77111000e+00	N
atom  2.82799000e+00 1.05576000e+01 7.62306000e+00	N
atom  1.99046000e+00 1.07026000e+01 6.06318000e+00	Si
atom  3.17891000e+00 9.73368000e+00 5.26284000e+00	N
atom  5.15298000e+00 9.78936000e+00 8.31575000e+00	N
atom  7.49995000e+00 1.01506000e+01 7.23429000e+00	N
atom  6.23795000e+00 1.12139000e+01 7.95676000e+00	Si
atom  8.28846000e+00 1.08402000e+01 5.83677000e+00	Si
atom  3.35885000e+00 1.11321000e+01 1.05445000e+01	N
atom  2.85945000e+00 1.02974000e+01 1.39505000e+01	Si
atom  5.97727000e-01 1.00731000e+01 1.21048000e+01	Si
atom  6.21776000e-01 1.17908000e+01 1.21504000e+01	N
atom  4.35427000e+00 1.10004000e+01 1.34106000e+01	N
atom  4.65493000e+00 1.09692000e+01 1.16508000e+01	Si
atom  9.15281000e+00 1.12303000e+01 1.23746000e+01	Si
atom  8.03276000e+00 1.10021000e+01 1.10755000e+01	N
atom  8.12492000e+00 1.07814000e+01 1.37059000e+01	N
atom  5.22186000e+00 1.01306000e+01 1.46185000e+01	Si
atom  1.37987000e+00 1.05579000e+01 1.49013000e+01	N
atom  1.15842000e+00 1.11696000e+01 1.77182000e+01	N
atom  3.91450000e+00 1.08851000e+01 1.92902000e+01	Si
atom  4.07297000e+00 1.07388000e+01 1.75413000e+01	N
atom  6.27339000e-01 1.14654000e+01 1.61027000e+01	Si
atom  6.74738000e+00 1.02403000e+01 1.92576000e+01	Si
atom  9.15339000e+00 1.11637000e+01 1.61522000e+01	N
atom  8.85563000e+00 1.17248000e+01 1.96247000e+01	N
atom  6.14767000e+00 1.10954000e+01 1.56723000e+01	N
atom  6.43175000e+00 1.17133000e+01 1.84942000e+01	N
atom  5.33028000e+00 1.18174000e+01 1.71497000e+01	Si
atom  7.76763000e+00 1.16022000e+01 1.51451000e+01	Si
atom  1.36711000e-01 1.13040000e+01 2.34835000e+01	N
atom  3.04823000e+00 1.17300000e+01 2.38946000e+01	N
atom  3.18732000e+00 9.94445000e+00 2.38914000e+01	Si
atom  5.60985000e+00 1.12376000e+01 2.25616000e+01	N
atom  7.24474000e+00 1.12533000e+01 2.34096000e+01	Si
atom  8.89176000e+00 1.06719000e+01 2.26024000e+01	N
atom  9.07593000e+00 1.04768000e+01 2.08226000e+01	Si
atom  5.16002000e+00 9.81907000e+00 1.99259000e+01	N
atom  5.27185000e+00 9.75722000e+00 2.17470000e+01	Si
atom  3.96412000e+00 1.00568000e+01 2.68106000e+01	Si
atom  1.55678000e+00 1.06705000e+01 2.83930000e+01	Si
atom  -1.25860000e-01 1.03543000e+01 2.86367000e+01	N
atom  2.77416000e+00 1.02376000e+01 2.96391000e+01	N
atom  2.17636000e+00 1.00533000e+01 2.68724000e+01	N
atom  4.67073000e+00 1.15682000e+01 2.71544000e+01	N
atom  8.71946000e+00 1.01092000e+01 2.76366000e+01	N
atom  7.63512000e+00 1.13562000e+01 2.51429000e+01	N
atom  9.52070000e+00 1.16497000e+01 2.80445000e+01	Si
atom  8.08572000e+00 9.85052000e+00 2.59971000e+01	Si
atom  3.04265000e+00 1.12411000e+01 3.23537000e+01	N
atom  3.67311000e+00 1.11562000e+01 3.07360000e+01	Si
atom  7.51154000e+00 1.17393000e+01 3.23080000e+01	N
atom  5.34395000e+00 1.05880000e+01 3.08814000e+01	N
atom  8.87944000e+00 1.09134000e+01 3.17681000e+01	Si
atom  6.71989000e+00 1.17023000e+01 3.07573000e+01	Si
atom  8.09575000e+00 1.07596000e+01 3.01749000e+01	N
atom  5.60544000e+00 1.00214000e+01 3.42421000e+01	Si
atom  5.85304000e+00 1.17577000e+01 3.46114000e+01	N
atom  2.22827000e+00 1.14178000e+01 3.61975000e+01	Si
atom  2.80162000e+00 1.04485000e+01 3.75059000e+01	N
atom  5.51311000e-01 1.11972000e+01 3.55810000e+01	N
atom  4.46875000e+00 1.02594000e+01 3.81198000e+01	Si
atom  3.88402000e-01 1.06644000e+01 3.96246000e+01	Si
atom  5.46546000e+00 1.15005000e+01 3.73965000e+01	N
atom  9.38316000e+00 1.08511000e+01 3.76567000e+01	N
atom  9.02794000e+00 1.08162000e+01 3.93454000e+01	Si
atom  7.35288000e+00 1.13185000e+01 3.94337000e+01	N
atom  9.21108000e-01 1.38424000e+01 1.42158000e+00	N
atom  3.48878000e+00 1.39083000e+01 4.02224000e+00	N
atom  3.31258000e+00 1.27546000e+01 1.65581000e+00	N
atom  1.93018000e+00 1.33985000e+01 4.63087000e+00	Si
atom  1.64024000e+00 1.23215000e+01 1.94755000e+00	Si
atom  3.95977000e+00 1.26015000e+01 5.70009000e-02	Si
atom  1.15498000e+00 1.21821000e+01 3.60255000e+00	N
atom  1.60018000e+00 1.44651000e+01 -1.83847000e-02	Si
atom  4.51649000e+00 1.32316000e+01 2.82353000e+00	Si
atom  7.37751000e+00 1.34118000e+01 3.93154000e+00	N
atom  5.64970000e+00 1.30064000e+01 -1.05557000e-01	N
atom  2.75925000e+00 1.37924000e+01 8.10519000e+00	N
atom  1.37246000e+00 1.37763000e+01 9.20454000e+00	Si
atom  3.34449000e+00 1.23163000e+01 7.32135000e+00	Si
atom  2.30221000e+00 1.23819000e+01 5.93977000e+00	N
atom  8.30518000e-01 1.21214000e+01 9.30456000e+00	N
atom  7.05588000e+00 1.23812000e+01 8.93839000e+00	N
atom  7.80432000e+00 1.33513000e+01 7.78764000e+00	Si
atom  8.14610000e+00 1.42448000e+01 5.33907000e+00	Si
atom  9.34724000e+00 1.38128000e+01 8.29187000e+00	N
atom  8.36142000e+00 1.25418000e+01 6.28281000e+00	N
atom  5.11752000e+00 1.21770000e+01 7.09408000e+00	N
atom  2.02029000e+00 1.36902000e+01 1.08010000e+01	N
atom  1.80847000e+00 1.19328000e+01 1.07173000e+01	Si
atom  8.04595000e+00 1.38086000e+01 1.12769000e+01	N
atom  7.20829000e+00 1.24136000e+01 1.06526000e+01	Si
atom  5.59453000e+00 1.23761000e+01 1.13238000e+01	N
atom  5.24858000e+00 1.41389000e+01 1.18091000e+01	Si
atom  3.18505000e+00 1.23928000e+01 1.95523000e+01	N
atom  8.00454000e-01 1.31129000e+01 1.55822000e+01	N
atom  1.71964000e+00 1.26943000e+01 1.85409000e+01	Si
atom  2.23394000e+00 1.39218000e+01 1.74402000e+01	N
atom  4.14207000e-01 1.32184000e+01 1.96055000e+01	N
atom  9.25693000e+00 1.30630000e+01 1.62628000e+01	Si
atom  8.19402000e+00 1.37132000e+01 1.75860000e+01	N
atom  7.69308000e+00 1.28488000e+01 1.91002000e+01	Si
atom  5.33362000e+00 1.35652000e+01 1.68325000e+01	N
atom  7.91090000e+00 1.32529000e+01 1.51876000e+01	N
atom  6.94531000e+00 1.41787000e+01 1.64844000e+01	Si
atom  2.98961000e+00 1.33924000e+01 2.09280000e+01	Si
atom  1.63237000e+00 1.29984000e+01 2.18821000e+01	N
atom  1.53016000e+00 1.23581000e+01 2.34492000e+01	Si
atom  1.16310000e+00 1.37512000e+01 2.45874000e+01	N
atom  4.21761000e+00 1.36047000e+01 2.21530000e+01	N
atom  7.27037000e-01 1.43036000e+01 2.09609000e+01	Si
atom  4.56124000e+00 1.24149000e+01 2.34141000e+01	Si
atom  7.30873000e+00 1.38033000e+01 2.04203000e+01	N
atom  7.41810000e+00 1.30019000e+01 2.30721000e+01	N
atom  8.28186000e+00 1.38281000e+01 2.17897000e+01	Si
atom  6.63964000e+00 1.40132000e+01 2.42261000e+01	Si
atom  1.66750000e+00 1.24339000e+01 2.84738000e+01	N
atom  1.60875000e+00 1.37916000e+01 2.74429000e+01	Si
atom  3.05184000e+00 1.38017000e+01 2.65149000e+01	N
atom  -2.25404000e-01 1.42145000e+01 2.53932000e+01	Si
atom  -4.30726000e-02 1.41308000e+01 2.71039000e+01	N
atom  4.68271000e+00 1.31476000e+01 2.64980000e+01	Si
atom  5.68023000e+00 1.42610000e+01 2.75110000e+01	N
atom  7.83152000e+00 1.42346000e+01 2.54913000e+01	N
atom  5.29848000e+00 1.31465000e+01 2.48439000e+01	N
atom  8.24500000e+00 1.26682000e+01 2.74410000e+01	N
atom  7.16435000e+00 1.36949000e+01 2.83149000e+01	Si
atom  8.58867000e+00 1.27251000e+01 2.57209000e+01	Si
atom  1.17728000e+00 1.36098000e+01 3.11774000e+01	N
atom  7.87911000e-01 1.34375000e+01 3.41504000e+01	N
atom  3.66893000e+00 1.28081000e+01 3.02343000e+01	N
atom  3.75682000e+00 1.25633000e+01 3.32775000e+01	Si
atom  3.01905000e+00 1.41261000e+01 3.32953000e+01	N
atom  1.33800000e+00 1.43702000e+01 3.27116000e+01	Si
atom  2.17947000e+00 1.34463000e+01 2.97440000e+01	Si
atom  -3.56049000e-01 1.29732000e+01 3.11123000e+01	Si
atom  6.65769000e+00 1.27877000e+01 3.33964000e+01	Si
atom  5.21910000e+00 1.31490000e+01 3.24369000e+01	N
atom  5.03633000e+00 1.36323000e+01 3.07042000e+01	Si
atom  7.63647000e+00 1.41049000e+01 3.40831000e+01	N
atom  9.33397000e+00 1.40640000e+01 3.45710000e+01	Si
atom  6.50125000e+00 1.31304000e+01 2.98636000e+01	N
atom  1.83987000e+00 1.30317000e+01 3.68028000e+01	N
atom  2.33363000e+00 1.37339000e+01 3.49938000e+01	Si
atom  2.94081000e+00 1.36694000e+01 3.91051000e+01	N
atom  3.40584000e-01 1.32991000e+01 3.76224000e+01	Si
atom  3.33233000e+00 1.22584000e+01 3.49912000e+01	N
atom  2.93736000e+00 1.42373000e+01 3.74341000e+01	Si
atom  -4.40558000e-01 1.26338000e+01 3.50497000e+01	Si
atom  4.46589000e+00 1.38108000e+01 3.67854000e+01	N
atom  -8.34876000e-02 1.20301000e+01 3.87305000e+01	N
atom  9.32704000e+00 1.24706000e+01 3.70739000e+01	Si
atom  6.58506000e+00 1.24270000e+01 3.83875000e+01	Si
atom  7.82119000e+00 1.32267000e+01 3.74850000e+01	N
atom  4.81590000e+00 1.23328000e+01 3.59481000e+01	Si
atom  -9.22691000e-02 1.63475000e+01 2.42684000e+00	N
atom  9.10488000e-01 1.47404000e+01 4.30123000e+00	N
atom  1.94054000e+00 1.61791000e+01 2.85569000e-01	N
atom  5.91967000e-02 1.46835000e+01 2.77678000e+00	Si
atom  3.76903000e+00 1.55431000e+01 4.65883000e+00	Si
atom  3.31911000e+00 1.65795000e+01 3.37607000e+00	N
atom  8.61904000e+00 1.59685000e+01 4.18117000e-01	Si
atom  7.82083000e+00 1.47824000e+01 1.37471000e+00	N
atom  7.09017000e+00 1.50542000e+01 2.97430000e+00	Si
atom  7.97070000e+00 1.57855000e+01 4.44247000e+00	N
atom  6.24933000e+00 1.44121000e+01 6.51803000e-01	Si
atom  5.38542000e+00 1.46915000e+01 2.28801000e+00	N
atom  4.72138000e-01 1.64656000e+01 8.34581000e+00	Si
atom  2.73535000e-02 1.48639000e+01 8.82465000e+00	N
atom  2.75025000e+00 1.57244000e+01 6.01255000e+00	N
atom  1.20149000e+00 1.61614000e+01 5.29819000e+00	Si
atom  3.19431000e+00 1.54607000e+01 7.75120000e+00	Si
atom  1.74693000e-01 1.62999000e+01 6.62561000e+00	N
atom  2.16616000e+00 1.64352000e+01 8.78529000e+00	N
atom  5.27718000e+00 1.66106000e+01 9.77958000e+00	Si
atom  4.85876000e+00 1.58878000e+01 8.17545000e+00	N
atom  5.30983000e+00 1.58780000e+01 5.34295000e+00	N
atom  6.02401000e+00 1.57856000e+01 6.89490000e+00	Si
atom  7.29133000e+00 1.46581000e+01 6.83845000e+00	N
atom  8.46240000e+00 1.60800000e+01 9.81970000e+00	N
atom  2.10659000e+00 1.49057000e+01 1.20952000e+01	Si
atom  1.14542000e+00 1.46454000e+01 1.34991000e+01	N
atom  3.78975000e+00 1.48192000e+01 1.25073000e+01	N